21
G: 25 x 25 i: 0 j: 0 E: 0.32115475361024437
C -1.850814 0.22715 -0.310821
H -2.164554 0.287732 -1.367447
H 0.600567 -0.686268 -0.004711
C -0.562692 1.077443 -0.152821
O -0.647581 2.326084 -0.269095
N 0.547569 0.356733 -0.040607
C 1.912587 0.865404 0.005998
H 2.095983 1.481356 0.895211
H 2.162517 1.461996 -0.879954
C -2.937815 0.866259 0.564193
H -2.909278 1.941685 0.371333
H -3.935658 0.46676 0.35042
H -2.690959 0.679507 1.614252
O -1.666294 -1.125567 0.204523
C -2.694796 -2.050434 -0.225279
H -2.394235 -3.031727 0.153367
H -3.689636 -1.798977 0.176781
H -2.773618 -2.098336 -1.325118
C 2.843656 -0.436742 0.057146
O 2.180435 -1.538256 0.055721
O 4.084082 -0.224178 0.092552
21
G: 25 x 25 i: 1 j: 0 E: 0.3146491889601748
C -1.827236 0.191997 -0.33622
H -1.979942 0.125381 -1.427864
H 0.629024 -0.692444 -0.04412
C -0.562619 1.059846 -0.082929
O -0.653919 2.312925 -0.115562
N 0.560923 0.350479 -0.047693
C 1.919331 0.871807 0.030213
H 2.092201 1.448149 0.947607
H 2.168036 1.51043 -0.826393
C -3.029769 0.897982 0.299229
H -2.949868 1.958438 0.047836
H -3.985828 0.48985 -0.046837
H -2.959713 0.782986 1.385724
O -1.717863 -1.094345 0.350904
C -2.658567 -2.083277 -0.137309
H -2.415993 -3.013414 0.385124
H -3.706572 -1.813965 0.072857
H -2.558544 -2.246179 -1.224004
C 2.863049 -0.422672 0.026661
O 2.209993 -1.529355 -0.029393
O 4.101239 -0.201311 0.077308
21
G: 25 x 25 i: 2 j: 0 E: 0.33697684740036493
C -1.798 0.163011 -0.367228
H -1.80745 -0.021049 -1.455339
H 0.667282 -0.699192 -0.131158
C -0.554916 1.034691 -0.025783
O -0.654286 2.283897 0.059344
N 0.580837 0.34302 -0.087748
C 1.932875 0.868363 0.051
H 2.08017 1.394526 1.002285
H 2.198551 1.553404 -0.763698
C -3.062308 0.921496 0.044304
H -2.933669 1.965233 -0.251772
H -3.968192 0.498769 -0.403514
H -3.142635 0.876948 1.13518
O -1.787324 -1.046006 0.463048
C -2.691708 -2.07198 -0.021182
H -2.524377 -2.946391 0.615147
H -3.750713 -1.773417 0.046921
H -2.479565 -2.346425 -1.068363
C 2.88452 -0.419785 -0.00174
O 2.238137 -1.524758 -0.134261
O 4.119967 -0.197923 0.088409
21
G: 25 x 25 i: 3 j: 0 E: 0.38567234918627946
C -1.765831 0.129648 -0.396646
H -1.657057 -0.182727 -1.448107
H 0.716245 -0.698214 -0.253297
C -0.543567 0.99818 0.01261
O -0.664793 2.227194 0.232938
N 0.605986 0.33915 -0.140641
C 1.949023 0.859337 0.083838
H 2.058089 1.317277 1.074609
H 2.241262 1.600241 -0.670663
C -3.045871 0.943838 -0.207482
H -2.912716 1.922724 -0.672918
H -3.920668 0.436098 -0.628169
H -3.192809 1.096298 0.865514
O -1.884278 -0.975042 0.567896
C -2.758828 -2.03706 0.104734
H -2.687122 -2.834422 0.851327
H -3.811313 -1.719923 0.018212
H -2.439202 -2.435098 -0.872924
C 2.909082 -0.419179 -0.026374
O 2.271926 -1.513902 -0.26052
O 4.139564 -0.203862 0.121789
21
G: 25 x 25 i: 4 j: 0 E: 0.42744772069272585
C -1.734352 0.081473 -0.413416
H -1.50706 -0.400035 -1.376788
H 0.779929 -0.698707 -0.366644
C -0.528658 0.94426 0.048938
O -0.678565 2.142175 0.38681
N 0.635023 0.315918 -0.132011
C 1.964272 0.827615 0.178237
H 2.046603 1.170462 1.216815
H 2.25918 1.653407 -0.481009
C -2.973326 0.966798 -0.519983
H -2.848704 1.681491 -1.339173
H -3.875317 0.37069 -0.695068
H -3.064725 1.534016 0.408426
O -2.056452 -0.852537 0.682772
C -2.862871 -1.975624 0.242258
H -2.974449 -2.628726 1.114213
H -3.865316 -1.6782 -0.109719
H -2.371161 -2.542272 -0.565897
C 2.946105 -0.417167 -0.057227
O 2.32852 -1.486772 -0.42779
O 4.170101 -0.207578 0.138968
21
G: 25 x 25 i: 5 j: 0 E: 0.4370774802137021
C -1.697367 0.015582 -0.416771
H -1.375722 -0.648453 -1.231727
H 0.852924 -0.734617 -0.406099
C -0.502283 0.860923 0.10148
O -0.665019 2.042582 0.488531
N 0.669575 0.240608 -0.053645
C 1.985374 0.758777 0.300596
H 2.07004 0.987571 1.369796
H 2.244165 1.661699 -0.266047
C -2.811759 0.957595 -0.86409
H -2.538622 1.443912 -1.806967
H -3.758193 0.423854 -0.998728
H -2.907594 1.729529 -0.097083
O -2.286755 -0.673832 0.752056
C -3.100296 -1.811566 0.367582
H -3.445552 -2.268209 1.30161
H -3.981004 -1.53122 -0.23534
H -2.52193 -2.558371 -0.201666
C 3.001094 -0.421144 -0.07852
O 2.409494 -1.462494 -0.559456
O 4.220517 -0.200126 0.129632
21
G: 25 x 25 i: 6 j: 0 E: 0.4403674197037617
C -1.665308 -0.067871 -0.396625
H -1.309757 -0.888781 -1.033711
H 0.911123 -0.787553 -0.382901
C -0.482735 0.774892 0.146576
O -0.661906 1.953417 0.535293
N 0.699722 0.171529 -0.000288
C 2.00467 0.719419 0.350232
H 2.09748 0.9242 1.423544
H 2.2281 1.64359 -0.196805
C -2.614589 0.867341 -1.143277
H -2.170029 1.181282 -2.094243
H -3.580156 0.390252 -1.340577
H -2.741893 1.748175 -0.508833
O -2.482309 -0.480993 0.768025
C -3.349425 -1.601353 0.457686
H -3.879921 -1.842424 1.385583
H -4.093454 -1.370174 -0.323588
H -2.780074 -2.48815 0.131878
C 3.047844 -0.421197 -0.071069
O 2.477994 -1.466852 -0.570136
O 4.263443 -0.172885 0.126885
21
G: 25 x 25 i: 7 j: 0 E: 0.45524538687277527
C -1.640366 -0.173282 -0.335986
H -1.286139 -1.13423 -0.731212
H 0.951978 -0.855962 -0.277173
C -0.473469 0.705688 0.175706
O -0.669428 1.90323 0.488074
N 0.72092 0.119937 0.047926
C 2.017659 0.723746 0.330819
H 2.128557 1.001938 1.385739
H 2.203258 1.615133 -0.280981
C -2.396583 0.639767 -1.38901
H -1.789681 0.750211 -2.294408
H -3.352133 0.17474 -1.653448
H -2.56124 1.62602 -0.946839
O -2.642274 -0.260893 0.750736
C -3.578217 -1.349156 0.545028
H -4.250035 -1.341058 1.410639
H -4.183084 -1.234294 -0.370318
H -3.073078 -2.328827 0.495363
C 3.081982 -0.415189 -0.03827
O 2.529559 -1.506181 -0.453485
O 4.294534 -0.12399 0.114354
21
G: 25 x 25 i: 8 j: 0 E: 0.4802728784561623
C -1.623532 -0.282604 -0.208113
H -1.293215 -1.329294 -0.234063
H 0.972014 -0.910985 -0.056797
C -0.475161 0.682058 0.168204
O -0.683659 1.911027 0.279431
N 0.728656 0.102247 0.102736
C 2.019682 0.76826 0.228135
H 2.160001 1.228241 1.213731
H 2.16449 1.542185 -0.53575
C -2.155526 0.18253 -1.569408
H -1.397349 0.027857 -2.344551
H -3.072147 -0.345681 -1.853502
H -2.354076 1.252946 -1.465451
O -2.771545 0.005109 0.675817
C -3.766767 -1.048383 0.642485
H -4.54819 -0.751395 1.350909
H -4.226395 -1.181414 -0.351207
H -3.354145 -2.022897 0.955832
C 3.097348 -0.399368 0.024383
O 2.556892 -1.555562 -0.173677
O 4.307333 -0.065605 0.079377
21
G: 25 x 25 i: 9 j: 0 E: 0.5012331914258539
C -1.615219 -0.330299 -0.014439
H -1.328952 -1.292975 0.431129
H 0.966646 -0.880165 0.233429
C -0.48745 0.719805 0.119342
O -0.701068 1.938416 -0.05321
N 0.72087 0.141981 0.158751
C 2.009794 0.816658 0.063403
H 2.190766 1.497372 0.904175
H 2.114465 1.386661 -0.868151
C -1.886809 -0.477606 -1.519917
H -0.991695 -0.863045 -2.018524
H -2.729808 -1.147195 -1.724142
H -2.110579 0.524542 -1.897439
O -2.868545 0.255722 0.484735
C -3.907338 -0.738396 0.667427
H -4.768523 -0.204782 1.084741
H -4.217204 -1.222733 -0.273365
H -3.606184 -1.533484 1.371655
C 3.088522 -0.367337 0.094703
O 2.551215 -1.536917 0.202181
O 4.296645 -0.031598 0.014059
21
G: 25 x 25 i: 10 j: 0 E: 0.5012611647398444
C -1.615853 -0.288972 0.160163
H -1.4174 -0.994969 0.980378
H 0.939077 -0.780876 0.425758
C -0.507165 0.793282 0.095104
O -0.722649 1.968952 -0.259733
N 0.702724 0.228513 0.235137
C 1.994038 0.857993 -0.012799
H 2.236816 1.630385 0.727515
H 2.053626 1.308677 -1.011208
C -1.600248 -1.03065 -1.188229
H -0.612857 -1.475152 -1.34336
H -2.361109 -1.818398 -1.234134
H -1.794698 -0.295024 -1.974835
O -2.926176 0.364687 0.191864
C -3.995497 -0.555518 0.523174
H -4.907386 0.0485 0.585884
H -4.145678 -1.340323 -0.236125
H -3.831594 -1.054581 1.494486
C 3.054308 -0.337955 0.10341
O 2.505685 -1.473709 0.382377
O 4.26122 -0.042043 -0.082665
21
G: 25 x 25 i: 11 j: 0 E: 0.41159841550688725
C -1.535331 -0.118583 0.407606
H -1.647273 -0.39895 1.46707
H 0.831707 -0.36256 1.03466
C -0.50709 1.032185 0.256009
O -0.686973 2.043764 -0.443524
N 0.692552 0.63977 0.762996
C 1.970949 0.98422 0.125978
H 2.595368 1.645835 0.737743
H 1.796338 1.461706 -0.843933
C -0.983695 -1.314464 -0.405523
H 0.055797 -1.53011 -0.127906
H -1.595707 -2.213409 -0.26627
H -1.016893 -1.024582 -1.461262
O -2.767969 0.245821 -0.292258
C -3.846242 -0.686041 -0.034799
H -4.727428 -0.280813 -0.544663
H -3.647331 -1.696867 -0.424391
H -4.071416 -0.779503 1.042877
C 2.725832 -0.41666 -0.067306
O 2.047571 -1.431016 0.378005
O 3.861426 -0.381453 -0.598058
21
G: 25 x 25 i: 12 j: 0 E: 0.495495695655336
C -1.587419 -0.122515 0.449447
H -1.811032 -0.312114 1.511456
H 0.86871 -0.434447 0.911841
C -0.532465 1.017282 0.303514
O -0.758768 2.09697 -0.271243
N 0.69181 0.564882 0.655738
C 1.957142 0.979139 0.050172
H 2.530634 1.682926 0.665793
H 1.792302 1.429445 -0.934931
C -1.031459 -1.397889 -0.23139
H -0.001091 -1.622366 0.062951
H -1.668694 -2.267305 -0.030284
H -1.042609 -1.199652 -1.308563
O -2.73247 0.199927 -0.407889
C -3.882955 -0.635454 -0.131244
H -4.689153 -0.266631 -0.77508
H -3.710691 -1.699699 -0.357788
H -4.209309 -0.564215 0.921795
C 2.791424 -0.386154 -0.093224
O 2.15415 -1.425044 0.35384
O 3.93867 -0.300174 -0.592333
21
G: 25 x 25 i: 13 j: 0 E: 0.5543792531880172
C -1.677093 -0.204209 0.365391
H -1.846625 -0.337298 1.447422
H 0.933217 -0.777121 0.194514
C -0.525917 0.827749 0.158423
O -0.752357 2.043791 -0.00059
N 0.67456 0.235714 0.074812
C 1.959702 0.90188 -0.095249
H 2.155175 1.643343 0.689927
H 2.051129 1.401131 -1.067634
C -1.367737 -1.563248 -0.280657
H -0.531294 -2.061976 0.215311
H -2.243358 -2.220983 -0.222211
H -1.111492 -1.406639 -1.331655
O -2.844892 0.255916 -0.396121
C -4.085016 -0.304368 0.096586
H -4.88291 0.145433 -0.504096
H -4.142591 -1.400619 -0.009512
H -4.259304 -0.060813 1.159378
C 3.035005 -0.282298 0.00017
O 2.494303 -1.439621 0.202836
O 4.243254 0.036477 -0.126514
21
G: 25 x 25 i: 14 j: 0 E: 0.5639287118792708
C -1.704926 -0.159827 0.424196
H -2.023426 -0.103037 1.478962
H 0.907707 -0.78012 0.110375
C -0.528703 0.842717 0.221733
O -0.742965 2.070308 0.145072
N 0.658251 0.241094 0.064292
C 1.946176 0.907322 -0.085055
H 2.151445 1.604909 0.736909
H 2.029614 1.458575 -1.029668
C -1.355898 -1.609899 0.069506
H -0.611133 -2.016468 0.759559
H -2.251915 -2.239982 0.118003
H -0.950728 -1.644349 -0.944953
O -2.753596 0.17717 -0.551799
C -4.064349 -0.274232 -0.136471
H -4.764228 0.072 -0.904551
H -4.145099 -1.371431 -0.058727
H -4.362989 0.154186 0.836212
C 3.014951 -0.28542 -0.065736
O 2.469116 -1.448584 0.081193
O 4.22363 0.032868 -0.189616
21
G: 25 x 25 i: 15 j: 0 E: 0.5633203466877603
C -1.737376 -0.09734 0.479612
H -2.197428 0.131713 1.454517
H 0.871383 -0.776792 0.088958
C -0.529655 0.868041 0.298427
O -0.718398 2.103505 0.274406
N 0.637591 0.249831 0.0797
C 1.931093 0.901697 -0.086815
H 2.166774 1.573613 0.748237
H 1.9955 1.478416 -1.017555
C -1.384075 -1.5846 0.405405
H -0.693964 -1.860811 1.207934
H -2.287387 -2.199743 0.492822
H -0.906693 -1.791996 -0.555741
O -2.632351 0.090784 -0.678125
C -3.999887 -0.287047 -0.388848
H -4.576609 -0.061241 -1.292177
H -4.117562 -1.358723 -0.157485
H -4.4202 0.287728 0.454542
C 2.982819 -0.304595 -0.129722
O 2.424359 -1.463587 0.000269
O 4.192083 0.000809 -0.277838
21
G: 25 x 25 i: 16 j: 0 E: 0.5591627173944289
C -1.776617 0.006925 0.51682
H -2.373378 0.423081 1.342561
H 0.815823 -0.762872 0.126376
C -0.531639 0.923534 0.355512
O -0.680262 2.165772 0.325552
N 0.613682 0.270627 0.128191
C 1.918446 0.885587 -0.085138
H 2.209073 1.54091 0.745796
H 1.959454 1.470809 -1.011823
C -1.456333 -1.465331 0.780287
H -0.842574 -1.569398 1.679783
H -2.376014 -2.047899 0.90966
H -0.903004 -1.86942 -0.071408
O -2.47225 -0.0279 -0.786789
C -3.873131 -0.375224 -0.657613
H -4.295798 -0.316942 -1.666305
H -4.035678 -1.393536 -0.268217
H -4.416679 0.327532 -0.002788
C 2.931817 -0.349497 -0.183229
O 2.346071 -1.493183 -0.041811
O 4.142408 -0.076267 -0.377053
21
G: 25 x 25 i: 17 j: 0 E: 0.5528698914404231
C -1.813987 0.157816 0.499199
H -2.516668 0.759613 1.093041
H 0.739943 -0.728535 0.175912
C -0.534068 1.018943 0.326473
O -0.631683 2.264037 0.231698
N 0.585422 0.31197 0.139917
C 1.912061 0.859193 -0.117662
H 2.248317 1.529453 0.683595
H 1.961166 1.408259 -1.065813
C -1.567102 -1.19771 1.166004
H -1.049118 -1.062609 2.119996
H -2.509826 -1.728061 1.345088
H -0.942466 -1.811521 0.511844
O -2.296 -0.205136 -0.850718
C -3.695471 -0.585025 -0.855042
H -3.957794 -0.767308 -1.902566
H -3.898753 -1.501429 -0.278101
H -4.344613 0.215116 -0.459199
C 2.868104 -0.42309 -0.187355
O 2.236253 -1.533816 0.005557
O 4.08576 -0.209776 -0.410651
21
G: 25 x 25 i: 18 j: 0 E: 0.5393782905066473
C -1.84624 0.325895 0.390625
H -2.620923 1.058901 0.655611
H 0.649842 -0.676217 0.197929
C -0.53876 1.12976 0.170772
O -0.5849 2.363973 -0.040358
N 0.554832 0.365532 0.089537
C 1.9129 0.823548 -0.175743
H 2.267159 1.535599 0.58035
H 2.012406 1.293213 -1.161926
C -1.710436 -0.733905 1.489975
H -1.356981 -0.269562 2.415766
H -2.669073 -1.228288 1.687445
H -0.986104 -1.491139 1.179944
O -2.116345 -0.457293 -0.83196
C -3.48635 -0.92965 -0.898493
H -3.589461 -1.424567 -1.869846
H -3.734405 -1.654531 -0.107177
H -4.214808 -0.102118 -0.840439
C 2.802709 -0.507297 -0.121829
O 2.111443 -1.566779 0.140075
O 4.034249 -0.371167 -0.329789
21
G: 25 x 25 i: 19 j: 0 E: 0.5049612616112427
C -1.872136 0.436745 0.212323
H -2.693097 1.163745 0.138131
H 0.546607 -0.627361 0.142434
C -0.553449 1.210074 -0.035166
O -0.565294 2.430005 -0.318928
N 0.517968 0.411668 -0.008052
C 1.907686 0.797989 -0.209797
H 2.243989 1.539009 0.526238
H 2.093028 1.201656 -1.212847
C -1.862315 -0.218932 1.601304
H -1.698832 0.547318 2.366428
H -2.809836 -0.727863 1.815155
H -1.048052 -0.945661 1.654453
O -1.932702 -0.690665 -0.733871
C -3.236819 -1.324938 -0.77331
H -3.180329 -2.081939 -1.562274
H -3.506316 -1.821752 0.171532
H -4.040037 -0.608854 -1.021546
C 2.734974 -0.561929 -0.020364
O 1.985901 -1.575787 0.256724
O 3.982028 -0.482806 -0.155335
21
G: 25 x 25 i: 20 j: 0 E: 0.4560117142264062
C -1.899247 0.45402 -0.015804
H -2.706156 1.063114 -0.447337
H 0.482421 -0.607057 0.120335
C -0.570359 1.225585 -0.191084
O -0.565238 2.43363 -0.521604
N 0.490653 0.434842 -0.003025
C 1.893206 0.809866 -0.123305
H 2.201914 1.522259 0.652149
H 2.127303 1.24633 -1.102191
C -2.142542 0.233313 1.486837
H -2.1428 1.202562 1.996925
H -3.099986 -0.264435 1.681548
H -1.327091 -0.376238 1.884294
O -1.736973 -0.893615 -0.575868
C -2.963921 -1.666903 -0.584545
H -2.724061 -2.603096 -1.098206
H -3.333815 -1.90405 0.424608
H -3.773872 -1.154049 -1.132758
C 2.70269 -0.560806 0.059593
O 1.939073 -1.577734 0.265655
O 3.955965 -0.479741 -0.011726
21
G: 25 x 25 i: 21 j: 0 E: 0.4168881205350772
C -1.900228 0.408909 -0.159482
H -2.642481 0.906492 -0.800332
H 0.489773 -0.633492 0.023238
C -0.570552 1.191364 -0.255936
O -0.586695 2.419831 -0.504645
N 0.49406 0.409618 -0.068239
C 1.891683 0.820933 -0.089359
H 2.133625 1.511428 0.72846
H 2.171927 1.300372 -1.035478
C -2.349137 0.478903 1.311866
H -2.397068 1.531516 1.609114
H -3.330413 0.017594 1.473691
H -1.596985 -0.032551 1.919315
O -1.665313 -1.010589 -0.425172
C -2.872418 -1.812929 -0.426031
H -2.561009 -2.820232 -0.718473
H -3.35744 -1.865824 0.560647
H -3.616303 -1.441104 -1.152458
C 2.726837 -0.534092 0.090953
O 1.983677 -1.577632 0.212871
O 3.979688 -0.414117 0.096683
21
G: 25 x 25 i: 22 j: 0 E: 0.38287482712985366
C -1.887434 0.342549 -0.250089
H -2.520535 0.712599 -1.071274
H 0.532665 -0.664231 -0.027208
C -0.562644 1.139409 -0.26625
O -0.613296 2.380746 -0.445192
N 0.516957 0.379013 -0.100579
C 1.901565 0.832841 -0.065791
H 2.095023 1.505795 0.77899
H 2.194062 1.349946 -0.987986
C -2.564797 0.669472 1.093453
H -2.598141 1.759148 1.185042
H -3.580602 0.263701 1.16443
H -1.947353 0.255606 1.896745
O -1.636859 -1.094536 -0.237289
C -2.838554 -1.898929 -0.318543
H -2.49973 -2.937007 -0.3846
H -3.488622 -1.793003 0.563829
H -3.437739 -1.657723 -1.214103
C 2.774875 -0.499345 0.099637
O 2.064464 -1.569331 0.167251
O 4.022466 -0.337367 0.145941
21
G: 25 x 25 i: 23 j: 0 E: 0.34827363150361634
C -1.869826 0.277568 -0.289914
H -2.351599 0.490947 -1.258526
H 0.573634 -0.68116 -0.012982
C -0.559117 1.098893 -0.222212
O -0.631889 2.343653 -0.376829
N 0.536474 0.361968 -0.07154
C 1.909769 0.849234 -0.030167
H 2.092566 1.498475 0.835201
H 2.180498 1.404551 -0.936588
C -2.777317 0.800106 0.836174
H -2.785814 1.890565 0.757114
H -3.799558 0.410787 0.767032
H -2.340876 0.507016 1.796345
O -1.636669 -1.132402 -0.003196
C -2.780823 -1.977247 -0.273501
H -2.444321 -3.003348 -0.098811
H -3.636687 -1.764381 0.386723
H -3.125614 -1.884134 -1.3182
C 2.818214 -0.464378 0.085115
O 2.13664 -1.554058 0.121353
O 4.061548 -0.270711 0.127485
21
G: 25 x 25 i: 24 j: 0 E: 0.32115450870696804
C -1.892599 0.22483 -0.22963
H -2.296635 0.260112 -1.256106
H 0.569827 -0.672096 0.044945
C -0.594508 1.073581 -0.238189
O -0.693962 2.317277 -0.389954
N 0.516411 0.364341 -0.074246
C 1.88152 0.874865 -0.075575
H 1.971097 1.529131 0.800712
H 2.217903 1.434304 -0.95721
C -2.901212 0.872641 0.728553
H -2.895035 1.945251 0.518799
H -3.911867 0.466562 0.609299
H -2.561919 0.701968 1.755104
O -1.570756 -1.150618 0.132413
C -2.59826 -2.100358 -0.241647
H -2.199246 -3.087911 0.003982
H -3.540574 -1.94709 0.307056
H -2.822625 -2.062422 -1.320781
C 2.808166 -0.413587 0.136469
O 2.177786 -1.521386 -0.048261
O 4.041376 -0.184025 0.247557
21
G: 25 x 25 i: 24 j: 1 E: 0.3473856692107802
C -1.91834 0.242503 -0.122684
H -2.450742 0.306142 -1.087657
H 0.541113 -0.684059 -0.030448
C -0.615633 1.062137 -0.319598
O -0.701458 2.309258 -0.449313
N 0.495516 0.347436 -0.178468
C 1.865023 0.844286 -0.2508
H 2.045351 1.665054 0.451076
H 2.122384 1.19093 -1.261478
C -2.770614 0.885629 0.980081
H -2.760802 1.963748 0.80078
H -3.79996 0.509484 0.986811
H -2.30204 0.674753 1.946714
O -1.527203 -1.159122 -0.014499
C -2.601296 -2.081525 -0.320213
H -2.158068 -3.081002 -0.286461
H -3.427571 -2.029739 0.407018
H -3.021161 -1.908184 -1.326258
C 2.782524 -0.410496 0.132737
O 2.146899 -1.52764 0.101171
O 3.993373 -0.159293 0.369147
21
G: 25 x 25 i: 23 j: 1 E: 0.37146884369212785
C -1.910398 0.302514 -0.075378
H -2.583815 0.541561 -0.915125
H 0.525697 -0.701099 -0.032631
C -0.594359 1.062279 -0.372516
O -0.645501 2.306163 -0.541002
N 0.50067 0.328143 -0.20282
C 1.880507 0.792624 -0.294237
H 2.07649 1.638017 0.373367
H 2.146626 1.091486 -1.317766
C -2.510126 0.842442 1.233645
H -2.477649 1.933562 1.17152
H -3.540951 0.506193 1.394228
H -1.883735 0.505569 2.065744
O -1.626142 -1.119927 -0.219597
C -2.812736 -1.939395 -0.348075
H -2.456335 -2.957285 -0.531121
H -3.435675 -1.936692 0.560379
H -3.445188 -1.621262 -1.195388
C 2.771422 -0.463836 0.142197
O 2.112672 -1.567796 0.156541
O 3.986969 -0.228044 0.370648
21
G: 25 x 25 i: 22 j: 1 E: 0.4035476516946801
C -1.897343 0.363738 -0.005197
H -2.676271 0.790095 -0.655953
H 0.501511 -0.704978 -0.052246
C -0.584205 1.084594 -0.387862
O -0.599845 2.326708 -0.566809
N 0.496457 0.325179 -0.221847
C 1.886278 0.753937 -0.329971
H 2.106582 1.606606 0.320629
H 2.155505 1.02617 -1.360112
C -2.211427 0.686198 1.467257
H -2.137988 1.77132 1.585879
H -3.210023 0.350442 1.770145
H -1.455382 0.200275 2.091769
O -1.754777 -1.02219 -0.43839
C -2.985625 -1.783337 -0.380132
H -2.752021 -2.763216 -0.806887
H -3.357451 -1.922693 0.646695
H -3.790347 -1.314473 -0.97339
C 2.747668 -0.516312 0.126205
O 2.060874 -1.602783 0.165369
O 3.969824 -0.307824 0.345406
21
G: 25 x 25 i: 21 j: 1 E: 0.43567609328965773
C -1.877403 0.399693 0.115736
H -2.710513 0.981833 -0.303916
H 0.491702 -0.691932 -0.031285
C -0.58288 1.116863 -0.330804
O -0.579982 2.353084 -0.537102
N 0.49359 0.34289 -0.179039
C 1.886396 0.742555 -0.340325
H 2.153512 1.584279 0.307087
H 2.121577 1.016079 -1.378499
C -1.937465 0.398529 1.654372
H -1.813145 1.427969 2.005784
H -2.88546 0.002925 2.037514
H -1.107387 -0.210127 2.024196
O -1.890967 -0.872542 -0.607477
C -3.138482 -1.600594 -0.487083
H -3.037924 -2.475 -1.137162
H -3.340903 -1.944593 0.538534
H -4.002427 -1.000281 -0.822632
C 2.73464 -0.551058 0.074024
O 2.023015 -1.621416 0.133551
O 3.968809 -0.37504 0.248295
21
G: 25 x 25 i: 20 j: 1 E: 0.4735095402411389
C -1.846074 0.369386 0.275706
H -2.683576 1.066758 0.13274
H 0.527799 -0.685756 -0.002061
C -0.580411 1.126557 -0.189592
O -0.592687 2.363527 -0.384029
N 0.509328 0.35745 -0.096333
C 1.890736 0.762592 -0.32551
H 2.201539 1.575576 0.33889
H 2.064847 1.077404 -1.364024
C -1.712731 -0.041558 1.751771
H -1.492413 0.846871 2.35328
H -2.628814 -0.505704 2.136194
H -0.881085 -0.744957 1.841533
O -2.039182 -0.671303 -0.742668
C -3.324389 -1.337231 -0.651791
H -3.37036 -2.017813 -1.507754
H -3.443472 -1.924418 0.271292
H -4.166137 -0.625087 -0.714041
C 2.753827 -0.550316 -0.013953
O 2.037472 -1.619296 0.04492
O 3.996976 -0.390628 0.095339
21
G: 25 x 25 i: 19 j: 1 E: 0.5231223109985876
C -1.787992 0.187894 0.449601
H -2.564011 0.899927 0.763899
H 0.623058 -0.704232 -0.132522
C -0.571155 1.065939 0.066902
O -0.63011 2.316024 0.112195
N 0.540293 0.340224 -0.091193
C 1.897889 0.831145 -0.290423
H 2.183295 1.575246 0.460207
H 2.043829 1.268492 -1.287994
C -1.457492 -0.807229 1.57201
H -1.058481 -0.264136 2.435256
H -2.345078 -1.366018 1.892235
H -0.698803 -1.511625 1.222306
O -2.269229 -0.331601 -0.842548
C -3.620754 -0.854337 -0.773282
H -3.891287 -1.128682 -1.798162
H -3.70798 -1.74768 -0.135989
H -4.339103 -0.101636 -0.403165
C 2.815124 -0.475067 -0.141922
O 2.136151 -1.571178 -0.197796
O 4.053038 -0.287157 -0.031231
21
G: 25 x 25 i: 18 j: 1 E: 0.5608173879991227
C -1.766669 -0.006676 0.480474
H -2.45289 0.599817 1.087907
H 0.750038 -0.745919 -0.128812
C -0.561046 0.933061 0.221886
O -0.678255 2.170613 0.377333
N 0.58616 0.283016 0.000771
C 1.904071 0.882305 -0.177724
H 2.164986 1.562156 0.639939
H 1.986075 1.431589 -1.12588
C -1.402302 -1.317218 1.187401
H -0.834786 -1.10441 2.098585
H -2.299238 -1.888015 1.456111
H -0.784204 -1.9304 0.52705
O -2.436984 -0.088326 -0.833105
C -3.833606 -0.464972 -0.722739
H -4.241339 -0.41891 -1.738001
H -3.978439 -1.484539 -0.332383
H -4.401508 0.228528 -0.07824
C 2.906369 -0.36642 -0.192791
O 2.295667 -1.493776 -0.349764
O 4.132983 -0.112447 -0.093303
21
G: 25 x 25 i: 17 j: 1 E: 0.5767516471660201
C -1.738465 -0.153505 0.442219
H -2.313447 0.293628 1.265649
H 0.843301 -0.78025 -0.133063
C -0.557001 0.830356 0.229914
O -0.727232 2.056145 0.421923
N 0.618671 0.237849 -0.005189
C 1.906745 0.908693 -0.148102
H 2.112854 1.590788 0.683301
H 1.976313 1.475402 -1.086874
C -1.344608 -1.60004 0.75162
H -0.626494 -1.6293 1.576168
H -2.22172 -2.200059 1.021386
H -0.880168 -2.043634 -0.13297
O -2.593763 0.080711 -0.741054
C -3.98485 -0.244609 -0.491488
H -4.528879 0.026676 -1.402401
H -4.151129 -1.314786 -0.289394
H -4.400099 0.32842 0.355559
C 2.974434 -0.283337 -0.159712
O 2.427398 -1.439158 -0.345
O 4.183752 0.032655 -0.031838
21
G: 25 x 25 i: 16 j: 1 E: 0.5834357457897568
C -1.708203 -0.248263 0.366771
H -2.14911 0.050674 1.329741
H 0.91088 -0.803785 -0.148783
C -0.554466 0.767809 0.13852
O -0.763992 1.989848 0.307616
N 0.644475 0.209067 -0.062603
C 1.915047 0.920075 -0.162645
H 2.052895 1.635493 0.654736
H 2.01471 1.458874 -1.115053
C -1.316006 -1.726777 0.3695
H -0.521832 -1.911569 1.098541
H -2.177351 -2.359085 0.614848
H -0.952479 -2.002478 -0.623956
O -2.725705 0.175504 -0.617977
C -4.074484 -0.136654 -0.189623
H -4.740178 0.267902 -0.959472
H -4.262969 -1.21871 -0.097289
H -4.322181 0.333241 0.777809
C 3.020683 -0.233646 -0.080541
O 2.521191 -1.412916 -0.254741
O 4.211114 0.126404 0.097004
21
G: 25 x 25 i: 15 j: 1 E: 0.5874428144252306
C -1.678757 -0.303889 0.276468
H -1.965895 -0.144297 1.328361
H 0.952228 -0.817752 -0.163156
C -0.551183 0.734995 0.007481
O -0.784141 1.957512 0.123923
N 0.664308 0.192395 -0.136456
C 1.928013 0.919746 -0.193925
H 2.003265 1.677225 0.593092
H 2.08179 1.41172 -1.164359
C -1.323096 -1.770945 0.024258
H -0.479821 -2.079341 0.648927
H -2.179565 -2.418547 0.245689
H -1.048038 -1.897149 -1.02619
O -2.823734 0.244736 -0.47502
C -4.096155 -0.094634 0.127203
H -4.862471 0.401268 -0.478131
H -4.301773 -1.177935 0.132873
H -4.173773 0.268548 1.166606
C 3.04165 -0.210724 0.01526
O 2.568842 -1.405348 -0.129448
O 4.214166 0.175875 0.246921
21
G: 25 x 25 i: 14 j: 1 E: 0.5884984261356294
C -1.66107 -0.332376 0.194846
H -1.804699 -0.305329 1.288304
H 0.972533 -0.828637 -0.123884
C -0.548189 0.716385 -0.106635
O -0.792772 1.940332 -0.07981
N 0.678462 0.179083 -0.153608
C 1.940099 0.910114 -0.200724
H 1.989261 1.700595 0.555356
H 2.125291 1.360707 -1.185754
C -1.370924 -1.762931 -0.27349
H -0.506973 -2.181143 0.250717
H -2.236431 -2.408693 -0.083805
H -1.162106 -1.7549 -1.346398
O -2.878668 0.306595 -0.329423
C -4.068532 -0.088909 0.393312
H -4.895454 0.480271 -0.044725
H -4.297856 -1.164021 0.303732
H -4.001168 0.151786 1.468611
C 3.049828 -0.205788 0.09386
O 2.586277 -1.408044 -0.014708
O 4.212799 0.195718 0.347201
21
G: 25 x 25 i: 13 j: 1 E: 0.5816751956408552
C -1.650436 -0.346688 0.119431
H -1.650767 -0.482548 1.214239
H 0.975128 -0.836536 -0.036669
C -0.541343 0.703845 -0.19501
O -0.786879 1.924148 -0.27088
N 0.686708 0.16681 -0.147418
C 1.953335 0.887186 -0.217235
H 1.999108 1.721159 0.490855
H 2.157676 1.275957 -1.22464
C -1.46264 -1.696591 -0.589187
H -0.561086 -2.208253 -0.24274
H -2.322432 -2.349691 -0.397504
H -1.380381 -1.525962 -1.665753
O -2.899538 0.374325 -0.154574
C -4.007472 -0.112978 0.638897
H -4.862708 0.525916 0.393664
H -4.277387 -1.159269 0.417666
H -3.807849 -0.040061 1.722377
C 3.051155 -0.21514 0.162904
O 2.58284 -1.419671 0.119466
O 4.212095 0.195425 0.411192
21
G: 25 x 25 i: 12 j: 1 E: 0.5541638477734523
C -1.642164 -0.344242 0.061658
H -1.532825 -0.668135 1.109438
H 0.954338 -0.811081 0.120522
C -0.536043 0.719325 -0.213388
O -0.78655 1.924641 -0.40521
N 0.686677 0.191117 -0.046419
C 1.967586 0.874163 -0.186657
H 2.069625 1.728689 0.490441
H 2.142879 1.222079 -1.214291
C -1.540433 -1.547801 -0.892455
H -0.57507 -2.050302 -0.798704
H -2.334736 -2.275915 -0.688212
H -1.65348 -1.1836 -1.917723
O -2.892913 0.417911 0.028447
C -3.949333 -0.216065 0.789576
H -4.807182 0.463657 0.744164
H -4.254797 -1.193943 0.382009
H -3.669696 -0.365901 1.847254
C 3.048717 -0.245973 0.192703
O 2.546917 -1.43782 0.207955
O 4.228074 0.140291 0.386486
21
G: 25 x 25 i: 11 j: 1 E: 0.4504002072226285
C -1.541663 -0.285349 0.14307
H -1.510203 -0.653334 1.180908
H 0.828898 -0.485591 0.81924
C -0.513954 0.866376 -0.00035
O -0.762232 1.947815 -0.559205
N 0.660026 0.520358 0.596226
C 1.963014 0.975891 0.087046
H 2.439258 1.732553 0.718504
H 1.85306 1.380548 -0.926732
C -1.164721 -1.409978 -0.852456
H -0.098719 -1.659642 -0.774721
H -1.76724 -2.311434 -0.690644
H -1.367521 -1.024806 -1.857607
O -2.847887 0.357735 -0.00328
C -3.935483 -0.494731 0.430772
H -4.847179 0.106956 0.344682
H -4.049822 -1.398889 -0.18771
H -3.821236 -0.817887 1.481093
C 2.878038 -0.337301 0.071285
O 2.199351 -1.436349 0.198344
O 4.111909 -0.169254 -0.080458
21
G: 25 x 25 i: 10 j: 1 E: 0.44289930410377565
C -1.515255 -0.277189 0.085322
H -1.39146 -0.735826 1.079028
H 0.781312 -0.444333 0.89512
C -0.482685 0.861942 -0.05456
O -0.680604 1.893598 -0.717867
N 0.640417 0.565928 0.666986
C 1.967819 0.979781 0.169198
H 2.472194 1.693703 0.827369
H 1.865877 1.425456 -0.82739
C -1.205435 -1.311264 -1.020936
H -0.141989 -1.583621 -0.959217
H -1.822552 -2.212077 -0.925912
H -1.407166 -0.834777 -1.986011
O -2.817388 0.385467 0.147624
C -3.881066 -0.521881 0.525501
H -4.78505 0.090331 0.618916
H -4.063448 -1.30969 -0.222154
H -3.685158 -1.016391 1.49396
C 2.829044 -0.365956 0.098932
O 2.107172 -1.441235 0.186078
O 4.068319 -0.241188 -0.051253
21
G: 25 x 25 i: 9 j: 1 E: 0.5154909292323282
C -1.496496 -0.275348 0.02952
H -1.300222 -0.819427 0.966321
H 0.73722 -0.400792 0.964617
C -0.442484 0.839398 -0.114665
O -0.584877 1.809751 -0.878398
N 0.621476 0.608178 0.718632
C 1.97421 0.984196 0.245004
H 2.496247 1.653937 0.93437
H 1.891323 1.467832 -0.734607
C -1.284364 -1.22085 -1.169803
H -0.229562 -1.533538 -1.139301
H -1.933083 -2.102983 -1.129228
H -1.480349 -0.656945 -2.087148
O -2.761995 0.410716 0.293829
C -3.828013 -0.511409 0.627373
H -4.694322 0.106162 0.889847
H -4.104839 -1.172597 -0.208775
H -3.572271 -1.150913 1.491313
C 2.78323 -0.391038 0.126439
O 2.019501 -1.438658 0.16573
O 4.02775 -0.306518 -0.011291
21
G: 25 x 25 i: 8 j: 1 E: 0.6416546105374437
C -1.476662 -0.280103 -0.020422
H -1.233875 -0.889056 0.863435
H 0.677526 -0.304887 1.081865
C -0.390643 0.799827 -0.187948
O -0.467626 1.679682 -1.063802
N 0.600814 0.679108 0.755592
C 1.982091 0.995582 0.308179
H 2.522143 1.622177 1.023067
H 1.927833 1.504076 -0.659472
C -1.38604 -1.159599 -1.278141
H -0.349443 -1.52919 -1.292718
H -2.083728 -2.003846 -1.26066
H -1.571568 -0.528748 -2.152235
O -2.682079 0.439897 0.403236
C -3.764226 -0.460061 0.746575
H -4.573237 0.169441 1.133987
H -4.141511 -1.030892 -0.116466
H -3.47198 -1.184782 1.527555
C 2.726377 -0.415535 0.155465
O 1.916734 -1.424574 0.152729
O 3.976315 -0.377343 0.035368
21
G: 25 x 25 i: 7 j: 1 E: 0.7432115428800898
C -1.415706 -0.300228 0.049689
H -1.194597 -0.664202 1.063416
H 0.479939 0.446319 1.421504
C -0.283837 0.636658 -0.411078
O -0.222105 1.044937 -1.583542
N 0.567881 1.040685 0.595695
C 1.999623 1.100328 0.207801
H 2.571889 1.754769 0.870311
H 2.043251 1.472713 -0.818171
C -1.442838 -1.4785 -0.929842
H -0.43622 -1.911518 -0.880204
H -2.201189 -2.22562 -0.672035
H -1.624024 -1.073284 -1.929
O -2.576329 0.589411 0.240929
C -3.693791 -0.093292 0.859433
H -4.46015 0.670536 1.034978
H -4.122343 -0.885054 0.225159
H -3.419993 -0.550434 1.827457
C 2.586331 -0.39347 0.256452
O 1.690353 -1.309798 0.314636
O 3.844278 -0.46805 0.214474
21
G: 25 x 25 i: 6 j: 1 E: 0.7689368435167125
C -1.350195 -0.315328 0.01531
H -1.050482 -0.600082 1.030974
H 0.349463 0.949045 1.274532
C -0.212729 0.522193 -0.598783
O -0.070269 0.630856 -1.82808
N 0.544231 1.241691 0.316241
C 2.003926 1.134313 0.061414
H 2.571342 1.842397 0.670787
H 2.167749 1.336656 -0.999351
C -1.538245 -1.566335 -0.842638
H -0.584957 -2.099781 -0.785287
H -2.357151 -2.198783 -0.483
H -1.721245 -1.245337 -1.871053
O -2.458898 0.647483 0.204562
C -3.500744 0.118451 1.059401
H -4.222147 0.93108 1.205978
H -4.02658 -0.744614 0.620347
H -3.112325 -0.194109 2.045459
C 2.449232 -0.372713 0.380331
O 1.469096 -1.196877 0.483888
O 3.693726 -0.555436 0.467969
21
G: 25 x 25 i: 5 j: 1 E: 0.7861090035366942
C -1.338669 -0.314912 0.128042
H -0.975361 -0.138735 1.146319
H 0.230506 1.550104 0.440696
C -0.172655 0.036179 -0.814198
O 0.036741 -0.576883 -1.873569
N 0.509619 1.203793 -0.478634
C 1.982746 1.012482 -0.521765
H 2.511685 1.948009 -0.322451
H 2.239651 0.643879 -1.517672
C -1.692191 -1.787822 -0.050712
H -0.79589 -2.336532 0.253411
H -2.54797 -2.088028 0.563551
H -1.889357 -1.976319 -1.108637
O -2.339774 0.75257 -0.100798
C -3.331444 0.801088 0.953155
H -3.959847 1.675942 0.74769
H -3.973885 -0.093975 0.986744
H -2.872034 0.918397 1.951005
C 2.378739 -0.104283 0.555459
O 1.382028 -0.788753 0.994776
O 3.609257 -0.185143 0.818328
21
G: 25 x 25 i: 4 j: 1 E: 0.46067767961721984
C -1.86549 -0.090353 0.319273
H -1.780886 0.348564 1.325459
H 0.663436 0.595877 0.482867
C -0.658009 -1.045187 0.112541
O -0.823859 -2.22334 -0.282788
N 0.510548 -0.420378 0.272698
C 1.840321 -0.964873 0.019694
H 1.900302 -1.481605 -0.94328
H 2.159035 -1.660021 0.809103
C -3.187316 -0.830747 0.131767
H -3.308276 -1.579096 0.920947
H -4.037414 -0.140543 0.155557
H -3.148006 -1.355803 -0.824737
O -1.558994 1.037788 -0.580657
C -2.211285 2.269225 -0.176223
H -1.855376 3.040846 -0.866953
H -3.311724 2.217657 -0.236994
H -1.939292 2.559536 0.852382
C 2.807364 0.312935 0.015795
O 2.249189 1.363898 0.512033
O 3.975022 0.133057 -0.413628
21
G: 25 x 25 i: 3 j: 1 E: 0.41959546401994885
C -1.888751 -0.125724 0.27615
H -1.973903 0.170662 1.334617
H 0.60833 0.629545 0.338768
C -0.658865 -1.069379 0.161696
O -0.806431 -2.289524 -0.089611
N 0.493412 -0.409864 0.291264
C 1.837881 -0.956909 0.140748
H 1.922023 -1.612947 -0.731435
H 2.155556 -1.518336 1.030632
C -3.160035 -0.821009 -0.211695
H -3.208472 -1.81818 0.230823
H -4.060838 -0.248694 0.035589
H -3.086093 -0.935552 -1.2969
O -1.447454 1.103891 -0.399597
C -2.221873 2.269257 -0.013154
H -1.739803 3.125223 -0.495927
H -3.27261 2.215779 -0.343042
H -2.213117 2.424764 1.078906
C 2.783194 0.323579 -0.043787
O 2.201533 1.426215 0.279494
O 3.96057 0.099154 -0.425365
21
G: 25 x 25 i: 2 j: 1 E: 0.3691976716836507
C -1.907778 -0.158456 0.225548
H -2.135518 0.025623 1.28977
H 0.576548 0.654734 0.19048
C -0.650321 -1.075136 0.20395
O -0.77849 -2.320927 0.108484
N 0.487835 -0.385041 0.234672
C 1.841417 -0.926658 0.184634
H 1.965642 -1.658054 -0.620427
H 2.128247 -1.402524 1.132975
C -3.087873 -0.840121 -0.471851
H -3.076006 -1.895038 -0.187998
H -4.048056 -0.37897 -0.216251
H -2.927813 -0.769231 -1.552541
O -1.435769 1.140385 -0.264897
C -2.298392 2.239379 0.126452
H -1.796232 3.151289 -0.210553
H -3.296419 2.184101 -0.338274
H -2.432099 2.288353 1.220555
C 2.782764 0.341998 -0.0805
O 2.182585 1.462811 0.118362
O 3.97517 0.093852 -0.396928
21
G: 25 x 25 i: 1 j: 1 E: 0.34404884448485973
C -1.918115 -0.194766 0.171797
H -2.297311 -0.122241 1.206497
H 0.555032 0.669059 0.08312
C -0.636579 -1.070682 0.258569
O -0.747413 -2.321937 0.296154
N 0.488921 -0.366465 0.190186
C 1.849862 -0.890294 0.216217
H 2.006999 -1.674076 -0.531934
H 2.113997 -1.29589 1.203003
C -2.961843 -0.868504 -0.725684
H -2.952058 -1.93456 -0.485761
H -3.965279 -0.450655 -0.587854
H -2.654443 -0.735107 -1.76796
O -1.464803 1.160358 -0.138741
C -2.418457 2.182359 0.245382
H -1.928868 3.140428 0.047468
H -3.354994 2.129246 -0.333231
H -2.674909 2.125441 1.317203
C 2.783818 0.368902 -0.110537
O 2.167058 1.492841 -0.008398
O 3.987316 0.112679 -0.376055
21
G: 25 x 25 i: 0 j: 1 E: 0.34738572363130515
C -1.901689 -0.232027 0.205768
H -2.354682 -0.28492 1.210869
H 0.558258 0.689849 0.074799
C -0.597504 -1.069473 0.266244
O -0.69182 -2.31606 0.394349
N 0.513281 -0.347804 0.16636
C 1.883037 -0.846933 0.213941
H 1.966496 -1.602781 -0.573822
H 2.230814 -1.289379 1.157988
C -2.85641 -0.875609 -0.808875
H -2.848334 -1.951119 -0.614608
H -3.876082 -0.482004 -0.732266
H -2.470233 -0.68618 -1.815343
O -1.574832 1.150964 -0.121469
C -2.631871 2.085675 0.205358
H -2.230518 3.080075 -0.006503
H -3.540219 1.929334 -0.396947
H -2.915849 2.032549 1.26978
C 2.794354 0.415007 -0.158956
O 2.257944 1.531566 0.193239
O 3.977193 0.15095 -0.501038
21
G: 25 x 25 i: 0 j: 2 E: 0.42562058425392024
C -1.866789 -0.241073 0.268423
H -2.281582 -0.338755 1.286758
H 0.571007 0.694452 0.247015
C -0.560487 -1.076607 0.209595
O -0.641028 -2.328721 0.272504
N 0.547395 -0.342244 0.230969
C 1.923567 -0.835253 0.270655
H 2.083517 -1.642902 -0.447946
H 2.193593 -1.191782 1.275531
C -2.856089 -0.858406 -0.729508
H -2.832312 -1.939756 -0.57235
H -3.875119 -0.476768 -0.599725
H -2.510974 -0.632135 -1.743393
O -1.644516 1.129371 -0.18169
C -2.728653 2.029099 0.155178
H -2.401822 3.024708 -0.158729
H -3.667183 1.778358 -0.364672
H -2.932436 2.042493 1.239912
C 2.819786 0.436198 -0.104242
O 2.270936 1.54075 0.255677
O 3.943801 0.202855 -0.621466
21
G: 25 x 25 i: 1 j: 2 E: 0.42578660098297405
C -1.846494 -0.201217 0.300219
H -2.104497 -0.170486 1.373587
H 0.601779 0.690503 0.28769
C -0.558831 -1.058058 0.142226
O -0.644734 -2.311193 0.122271
N 0.559545 -0.34461 0.239566
C 1.929393 -0.856885 0.245398
H 2.073181 -1.632807 -0.510528
H 2.201497 -1.262158 1.231071
C -2.977771 -0.888998 -0.471551
H -2.913837 -1.957468 -0.251545
H -3.965657 -0.498175 -0.203955
H -2.80494 -0.734871 -1.541521
O -1.676004 1.107028 -0.330858
C -2.679031 2.071564 0.076077
H -2.391078 3.019308 -0.388329
H -3.692313 1.798311 -0.259986
H -2.705405 2.201926 1.171548
C 2.839433 0.419271 -0.07775
O 2.306874 1.512699 0.337646
O 3.956896 0.19698 -0.613147
21
G: 25 x 25 i: 2 j: 2 E: 0.45443671858811285
C -1.818194 -0.167984 0.336707
H -1.929921 -0.020586 1.424927
H 0.641914 0.681392 0.377025
C -0.54994 -1.033518 0.083747
O -0.641461 -2.278061 -0.05455
N 0.577206 -0.349833 0.27561
C 1.942458 -0.872822 0.218425
H 2.060037 -1.604072 -0.58487
H 2.23375 -1.336694 1.172205
C -3.038749 -0.907905 -0.216729
H -2.937447 -1.961896 0.05226
H -3.982274 -0.499089 0.160558
H -3.017526 -0.824311 -1.308024
O -1.727323 1.068082 -0.447027
C -2.687984 2.073037 -0.031317
H -2.459325 2.968734 -0.616775
H -3.730221 1.771579 -0.225101
H -2.594506 2.313034 1.041513
C 2.856004 0.413701 -0.050642
O 2.341277 1.484095 0.442148
O 3.959196 0.217595 -0.623588
21
G: 25 x 25 i: 3 j: 2 E: 0.5075682494662033
C -1.784241 -0.130724 0.37096
H -1.766557 0.142641 1.439004
H 0.693177 0.655353 0.501859
C -0.539649 -1.00079 0.039875
O -0.652678 -2.218692 -0.236895
N 0.600224 -0.364303 0.317747
C 1.95885 -0.889095 0.172143
H 2.042057 -1.553388 -0.691124
H 2.279035 -1.42892 1.075236
C -3.049716 -0.922837 0.041299
H -2.966142 -1.919401 0.479887
H -3.953396 -0.420462 0.403071
H -3.103452 -1.03463 -1.045298
O -1.805719 1.008757 -0.558454
C -2.721881 2.056916 -0.146529
H -2.572801 2.88135 -0.850906
H -3.777879 1.742154 -0.180379
H -2.503928 2.415713 0.873574
C 2.872384 0.411105 -0.023519
O 2.38031 1.44016 0.572342
O 3.954818 0.260057 -0.646308
21
G: 25 x 25 i: 4 j: 2 E: 0.5499348701978306
C -1.749494 -0.075904 0.391555
H -1.58376 0.368992 1.385173
H 0.765575 0.620365 0.605416
C -0.531513 -0.951323 -0.010918
O -0.681281 -2.131996 -0.403868
N 0.630773 -0.358222 0.273051
C 1.97402 -0.890089 0.041476
H 2.03709 -1.427573 -0.907356
H 2.290028 -1.557413 0.856603
C -3.008851 -0.9388 0.381383
H -2.955854 -1.681716 1.183029
H -3.90976 -0.330056 0.512436
H -3.044254 -1.473834 -0.569635
O -1.974472 0.900223 -0.690919
C -2.797245 2.020355 -0.27352
H -2.830371 2.705471 -1.127058
H -3.828242 1.727784 -0.011855
H -2.362713 2.549592 0.591012
C 2.912741 0.406887 0.018923
O 2.444835 1.352362 0.758486
O 3.987031 0.32681 -0.629015
21
G: 25 x 25 i: 5 j: 2 E: 0.5570916579945333
C -1.711151 -0.01271 0.401242
H -1.426043 0.606881 1.263935
H 0.843906 0.618227 0.64795
C -0.509865 -0.874304 -0.073629
O -0.681635 -2.029965 -0.52789
N 0.668701 -0.29969 0.182021
C 1.995178 -0.84603 -0.105036
H 2.055997 -1.256832 -1.115212
H 2.277525 -1.624461 0.618846
C -2.877833 -0.938227 0.73595
H -2.679102 -1.473419 1.670939
H -3.815126 -0.381287 0.83552
H -2.946953 -1.672339 -0.070034
O -2.203952 0.742227 -0.770731
C -3.009829 1.886814 -0.390064
H -3.28031 2.391729 -1.323724
H -3.935265 1.607995 0.142378
H -2.449773 2.591703 0.246961
C 2.973022 0.411696 0.050082
O 2.522507 1.267614 0.902914
O 4.052719 0.385898 -0.592164
21
G: 25 x 25 i: 6 j: 2 E: 0.5593812793304096
C -1.67733 0.060168 0.390442
H -1.341268 0.829185 1.099256
H 0.901599 0.650717 0.644269
C -0.488315 -0.791299 -0.123572
O -0.678288 -1.934141 -0.601534
N 0.701473 -0.240417 0.13617
C 2.015678 -0.81007 -0.162808
H 2.075003 -1.182048 -1.187915
H 2.271379 -1.623643 0.531701
C -2.703583 -0.883688 1.014459
H -2.333661 -1.271876 1.969994
H -3.663634 -0.383846 1.179362
H -2.818144 -1.718211 0.318043
O -2.401091 0.569372 -0.796664
C -3.24691 1.703598 -0.477237
H -3.706075 2.016298 -1.4215
H -4.048336 1.458079 0.240336
H -2.669176 2.547933 -0.065044
C 3.022304 0.415746 0.049368
O 2.584346 1.247919 0.932557
O 4.1064 0.39105 -0.58506
21
G: 25 x 25 i: 7 j: 2 E: 0.5742835734890832
C -1.649554 0.159697 0.341016
H -1.29984 1.078886 0.829106
H 0.941314 0.731994 0.56256
C -0.47337 -0.716428 -0.153227
O -0.678221 -1.878662 -0.572354
N 0.725365 -0.178494 0.096432
C 2.029614 -0.796358 -0.145853
H 2.098373 -1.224038 -1.14836
H 2.250856 -1.577931 0.595683
C -2.497825 -0.703231 1.278017
H -1.958127 -0.899562 2.211037
H -3.45591 -0.22742 1.512225
H -2.65965 -1.648424 0.752935
O -2.571514 0.355035 -0.800199
C -3.486471 1.458817 -0.581614
H -4.098014 1.531176 -1.487817
H -4.154748 1.303776 0.282288
H -2.956697 2.414934 -0.432174
C 3.063056 0.413743 0.020553
O 2.629833 1.302621 0.849551
O 4.157675 0.329583 -0.59023
21
G: 25 x 25 i: 8 j: 2 E: 0.599299853976845
C -1.629747 0.277966 0.217329
H -1.290255 1.316828 0.322407
H 0.959201 0.85118 0.345142
C -0.469094 -0.683469 -0.127568
O -0.683709 -1.899452 -0.327232
N 0.735163 -0.127148 0.052527
C 2.03116 -0.803031 -0.020901
H 2.121816 -1.415242 -0.920737
H 2.210093 -1.432812 0.862975
C -2.263144 -0.249777 1.510863
H -1.560965 -0.149443 2.345507
H -3.190675 0.278323 1.757039
H -2.468427 -1.309544 1.335511
O -2.715306 0.054616 -0.758321
C -3.694589 1.123761 -0.743809
H -4.427966 0.874673 -1.518768
H -4.221246 1.217937 0.220643
H -3.245991 2.103909 -0.980249
C 3.087532 0.397962 -0.051732
O 2.649899 1.436762 0.576605
O 4.198561 0.179792 -0.596334
21
G: 25 x 25 i: 9 j: 2 E: 0.6197271501077921
C -1.618031 0.333113 0.004825
H -1.308347 1.291501 -0.434245
H 0.950591 0.896036 -0.00247
C -0.477463 -0.7107 -0.039656
O -0.69438 -1.929376 0.122777
N 0.7288 -0.125666 -0.007037
C 2.019169 -0.789134 0.184041
H 2.14794 -1.63629 -0.493297
H 2.149461 -1.134183 1.220482
C -1.991131 0.499066 1.486618
H -1.134903 0.897324 2.040583
H -2.849682 1.166085 1.623032
H -2.235473 -0.498816 1.862626
O -2.831596 -0.267874 -0.567786
C -3.858712 0.717981 -0.840811
H -4.687603 0.172106 -1.3048
H -4.233266 1.219436 0.066927
H -3.512507 1.499853 -1.538898
C 3.088749 0.353873 -0.144515
O 2.633407 1.529857 0.130353
O 4.222156 -0.009929 -0.547054
21
G: 25 x 25 i: 10 j: 2 E: 0.6186410072114086
C -1.61666 0.289211 -0.167076
H -1.374884 0.987819 -0.981746
H 0.923987 0.830158 -0.19847
C -0.495698 -0.770946 -0.011226
O -0.714132 -1.948294 0.333508
N 0.713002 -0.187184 -0.077293
C 2.000374 -0.793982 0.263628
H 2.179898 -1.718056 -0.290793
H 2.082145 -0.999941 1.341269
C -1.709219 1.047557 1.169094
H -0.745401 1.516169 1.388796
H -2.48744 1.819215 1.150352
H -1.944068 0.317873 1.95014
O -2.909416 -0.389561 -0.277476
C -3.968074 0.503132 -0.705497
H -4.862746 -0.119096 -0.817464
H -4.184625 1.302131 0.022352
H -3.743972 0.982337 -1.674608
C 3.068757 0.318897 -0.158472
O 2.583067 1.511266 -0.063397
O 4.226631 -0.069852 -0.454069
21
G: 25 x 25 i: 11 j: 2 E: 0.5477782581692736
C -1.545014 0.124845 -0.422518
H -1.597866 0.437299 -1.477671
H 0.814974 0.37956 -0.923587
C -0.524105 -1.027016 -0.243711
O -0.728483 -2.047831 0.432235
N 0.705346 -0.620648 -0.673769
C 1.935788 -0.940811 0.077636
H 2.518258 -1.74904 -0.371716
H 1.683592 -1.208839 1.111977
C -1.034953 1.293326 0.458352
H 0.0298 1.489499 0.272248
H -1.614389 2.208705 0.291021
H -1.161176 0.979962 1.5004
O -2.813209 -0.258608 0.19769
C -3.871172 0.692967 -0.073904
H -4.779522 0.274252 0.373455
H -3.684385 1.684214 0.368031
H -4.040711 0.833403 -1.156564
C 2.790902 0.406941 0.035674
O 2.051134 1.469211 -0.034043
O 4.038724 0.301479 0.12157
21
G: 25 x 25 i: 12 j: 2 E: 0.6411451043495617
C -1.590883 0.124444 -0.467752
H -1.759729 0.336451 -1.535475
H 0.846308 0.45209 -0.790658
C -0.538902 -1.012801 -0.286837
O -0.782274 -2.096683 0.268994
N 0.704498 -0.550192 -0.568608
C 1.923782 -0.927593 0.162027
H 2.453002 -1.775959 -0.279351
H 1.690887 -1.15239 1.211733
C -1.073727 1.386331 0.272052
H -0.016259 1.595891 0.075624
H -1.676281 2.268822 0.02695
H -1.184231 1.174793 1.341218
O -2.775405 -0.219134 0.324715
C -3.908723 0.630907 0.020829
H -4.745491 0.246414 0.614467
H -3.741931 1.686181 0.288857
H -4.185442 0.594153 -1.04796
C 2.8444 0.377507 0.058517
O 2.151937 1.469985 -0.023894
O 4.087242 0.214849 0.120415
21
G: 25 x 25 i: 13 j: 2 E: 0.6685999613546301
C -1.660046 0.198326 -0.376166
H -1.770705 0.296012 -1.469332
H 0.905731 0.808175 0.036642
C -0.512336 -0.81453 -0.078272
O -0.735282 -2.030727 0.081411
N 0.678203 -0.210022 0.055625
C 1.962708 -0.859968 0.316361
H 2.104781 -1.746379 -0.306736
H 2.071517 -1.142829 1.373613
C -1.403386 1.581265 0.241043
H -0.560759 2.083302 -0.241476
H -2.289486 2.217344 0.129312
H -1.183845 1.463638 1.305435
O -2.862399 -0.255646 0.33285
C -4.080438 0.265466 -0.2499
H -4.904638 -0.176705 0.320065
H -4.160609 1.363683 -0.1867
H -4.188888 -0.018352 -1.311305
C 3.034608 0.267845 -0.053816
O 2.566438 1.456122 0.142207
O 4.179094 -0.108268 -0.410767
21
G: 25 x 25 i: 14 j: 2 E: 0.673168591583817
C -1.680973 0.15542 -0.436297
H -1.935363 0.075526 -1.506618
H 0.874965 0.793331 0.117002
C -0.514789 -0.836962 -0.146516
O -0.726807 -2.064782 -0.074019
N 0.65919 -0.226853 0.069468
C 1.946214 -0.87848 0.312302
H 2.099493 -1.732095 -0.352533
H 2.045429 -1.212921 1.355213
C -1.362943 1.614912 -0.091775
H -0.57642 2.009431 -0.741251
H -2.256675 2.238018 -0.213694
H -1.028056 1.675464 0.94711
O -2.78311 -0.16991 0.482701
C -4.070722 0.257763 -0.021249
H -4.812239 -0.07764 0.711742
H -4.156325 1.351957 -0.130012
H -4.306126 -0.196728 -0.999286
C 3.011789 0.275526 0.011577
O 2.529431 1.447906 0.261846
O 4.163676 -0.071395 -0.350801
21
G: 25 x 25 i: 15 j: 2 E: 0.671187737965738
C -1.70721 0.096981 -0.493055
H -2.095648 -0.140581 -1.496441
H 0.831662 0.782076 0.15241
C -0.512966 -0.863624 -0.22194
O -0.697643 -2.099499 -0.215591
N 0.634756 -0.240321 0.074759
C 1.926903 -0.878441 0.327427
H 2.101709 -1.715457 -0.352951
H 2.010404 -1.23434 1.36445
C -1.366729 1.586592 -0.40496
H -0.612473 1.857075 -1.149452
H -2.261789 2.19652 -0.57418
H -0.975272 1.806629 0.591899
O -2.680301 -0.087783 0.600186
C -4.026298 0.279645 0.212303
H -4.664006 0.056486 1.074348
H -4.133055 1.348987 -0.034502
H -4.382495 -0.303614 -0.654317
C 2.981911 0.295946 0.073088
O 2.478398 1.455412 0.340145
O 4.145047 -0.027396 -0.27496
21
G: 25 x 25 i: 16 j: 2 E: 0.6665013096007897
C -1.744577 8.5e-05 -0.537512
H -2.269597 -0.410579 -1.413031
H 0.771883 0.767061 0.132021
C -0.513362 -0.9141 -0.285779
O -0.656397 -2.156884 -0.292337
N 0.607898 -0.26 0.040623
C 1.907675 -0.865833 0.332058
H 2.129777 -1.688682 -0.351799
H 1.961761 -1.233713 1.366797
C -1.411896 1.47646 -0.760987
H -0.714339 1.590554 -1.595611
H -2.319329 2.053137 -0.974895
H -0.948934 1.87997 0.143613
O -2.543424 0.018413 0.705802
C -3.930632 0.363637 0.467257
H -4.433764 0.291506 1.43739
H -4.06425 1.386311 0.078501
H -4.416221 -0.332359 -0.238243
C 2.939925 0.338337 0.132047
O 2.397646 1.480631 0.395065
O 4.122791 0.048501 -0.177482
21
G: 25 x 25 i: 17 j: 2 E: 0.6590018486858753
C -1.783568 -0.145735 -0.534841
H -2.427747 -0.737552 -1.200573
H 0.694041 0.740778 0.091858
C -0.515746 -1.002877 -0.277824
O -0.607297 -2.250868 -0.237337
N 0.579178 -0.294264 0.021021
C 1.897216 -0.835596 0.354136
H 2.173607 -1.659721 -0.308071
H 1.942398 -1.181578 1.396836
C -1.49439 1.227569 -1.146477
H -0.886068 1.120336 -2.049022
H -2.423448 1.750478 -1.402173
H -0.944107 1.835117 -0.423118
O -2.380552 0.177938 0.778636
C -3.776823 0.555794 0.673461
H -4.129271 0.70618 1.699383
H -3.932655 1.488732 0.108581
H -4.386025 -0.233059 0.199348
C 2.880421 0.409094 0.154196
O 2.28402 1.531419 0.381574
O 4.081626 0.164091 -0.122385
21
G: 25 x 25 i: 18 j: 2 E: 0.6409794685750967
C -1.818932 -0.318088 -0.445704
H -2.559596 -1.050061 -0.796778
H 0.603611 0.701628 0.065757
C -0.523342 -1.115003 -0.14745
O -0.565478 -2.357746 0.001623
N 0.54962 -0.340585 0.049387
C 1.897666 -0.787316 0.399556
H 2.21622 -1.633049 -0.214699
H 1.972782 -1.064802 1.460948
C -1.609142 0.778677 -1.49592
H -1.177814 0.34748 -2.404413
H -2.554765 1.270599 -1.753303
H -0.919655 1.532018 -1.1071
O -2.196374 0.417357 0.778246
C -3.570444 0.881717 0.746985
H -3.758505 1.338378 1.724337
H -3.755719 1.635423 -0.034331
H -4.28534 0.054103 0.596109
C 2.807803 0.495868 0.110301
O 2.152357 1.595652 0.27443
O 4.018218 0.299394 -0.165405
21
G: 25 x 25 i: 19 j: 2 E: 0.5996877524357842
C -1.851859 -0.445998 -0.27592
H -2.663902 -1.186576 -0.280162
H 0.499943 0.658511 0.089967
C -0.541765 -1.204069 0.048477
O -0.547437 -2.433085 0.286287
N 0.512924 -0.383941 0.121755
C 1.895407 -0.744572 0.429283
H 2.227076 -1.609748 -0.149916
H 2.037045 -0.951918 1.500023
C -1.752676 0.247782 -1.642233
H -1.519439 -0.494743 -2.412486
H -2.690792 0.747391 -1.912272
H -0.948568 0.986993 -1.616342
O -1.996308 0.651771 0.696298
C -3.302988 1.280387 0.649945
H -3.314887 2.012019 1.464378
H -3.497657 1.805962 -0.297522
H -4.119215 0.553954 0.80971
C 2.72802 0.559009 0.017746
O 2.031107 1.636097 0.147264
O 3.932024 0.396531 -0.30628
21
G: 25 x 25 i: 20 j: 2 E: 0.5467139660249813
C -1.888226 -0.472898 -0.068207
H -2.71825 -1.117197 0.254265
H 0.444459 0.639856 0.129351
C -0.563975 -1.224541 0.201561
O -0.557421 -2.448376 0.464285
N 0.489268 -0.400517 0.155519
C 1.891051 -0.749057 0.377282
H 2.198286 -1.603437 -0.230958
H 2.09515 -0.969724 1.43536
C -1.989111 -0.184888 -1.575455
H -1.915693 -1.128622 -2.12634
H -2.934734 0.302492 -1.841153
H -1.152784 0.457446 -1.862502
O -1.811835 0.8487 0.568705
C -3.047314 1.603605 0.483633
H -2.880989 2.516721 1.063725
H -3.312728 1.884597 -0.546731
H -3.900375 1.053013 0.917855
C 2.692369 0.564592 -0.06218
O 2.002312 1.636001 0.119343
O 3.877447 0.407125 -0.454997
21
G: 25 x 25 i: 21 j: 2 E: 0.5080814836164791
C -1.897388 -0.433001 0.083479
H -2.68844 -0.971088 0.625333
H 0.451309 0.656695 0.223453
C -0.566485 -1.194143 0.280767
O -0.576465 -2.433236 0.465714
N 0.492255 -0.381721 0.235087
C 1.898075 -0.763113 0.353947
H 2.142616 -1.610677 -0.29118
H 2.165986 -1.013046 1.391071
C -2.194863 -0.445947 -1.427063
H -2.187449 -1.485216 -1.771178
H -3.16574 0.002636 -1.668044
H -1.39742 0.105257 -1.933521
O -1.720247 0.977427 0.432908
C -2.935211 1.761754 0.334513
H -2.67703 2.759768 0.701377
H -3.30977 1.850487 -0.696484
H -3.746657 1.347792 0.958511
C 2.702821 0.541155 -0.106896
O 2.056429 1.624236 0.142974
O 3.855923 0.360225 -0.578774
21
G: 25 x 25 i: 22 j: 2 E: 0.4767029881168128
C -1.891556 -0.36553 0.188418
H -2.594539 -0.77531 0.929848
H 0.495226 0.681348 0.269743
C -0.559911 -1.142556 0.305402
O -0.601552 -2.390556 0.426611
N 0.51494 -0.35651 0.275118
C 1.912447 -0.781813 0.333348
H 2.104496 -1.62393 -0.336136
H 2.208547 -1.061537 1.355006
C -2.428246 -0.650018 -1.226194
H -2.430656 -1.735676 -1.361171
H -3.440285 -0.258546 -1.38131
H -1.743453 -0.195824 -1.948985
O -1.665183 1.074697 0.254318
C -2.881675 1.860577 0.233287
H -2.569149 2.899796 0.371814
H -3.430428 1.778552 -0.717518
H -3.569656 1.579155 1.049774
C 2.743331 0.505146 -0.129434
O 2.143795 1.602812 0.16559
O 3.872813 0.294634 -0.644751
21
G: 25 x 25 i: 23 j: 2 E: 0.4466212517254462
C -1.880589 -0.296469 0.239138
H -2.451603 -0.548443 1.148044
H 0.539604 0.694959 0.255401
C -0.557377 -1.100196 0.272985
O -0.623728 -2.350253 0.372786
N 0.535517 -0.342577 0.256305
C 1.921366 -0.806819 0.303709
H 2.091092 -1.637358 -0.385957
H 2.206924 -1.120223 1.318563
C -2.664942 -0.788838 -0.988267
H -2.662663 -1.881487 -0.94905
H -3.695586 -0.416333 -1.006325
H -2.141254 -0.45534 -1.88974
O -1.638774 1.125396 0.025089
C -2.818206 1.947783 0.195535
H -2.480561 2.98286 0.089507
H -3.59365 1.745647 -0.560036
H -3.272363 1.817055 1.193344
C 2.789137 0.467088 -0.125599
O 2.221014 1.573381 0.196896
O 3.913376 0.236653 -0.643882
21
G: 25 x 25 i: 24 j: 2 E: 0.42562028492829995
C -1.90619 -0.240028 0.186065
H -2.407043 -0.312518 1.166914
H 0.527916 0.709088 0.190413
C -0.59609 -1.063051 0.29838
O -0.678925 -2.312183 0.402689
N 0.508638 -0.324931 0.263074
C 1.886509 -0.806514 0.352438
H 1.954373 -1.65212 -0.336611
H 2.244862 -1.121016 1.343703
C -2.801738 -0.879838 -0.883347
H -2.788456 -1.958066 -0.705047
H -3.829263 -0.500901 -0.850626
H -2.369546 -0.670013 -1.866746
O -1.579499 1.151295 -0.105079
C -2.666152 2.068522 0.17084
H -2.266811 3.070423 -0.006653
H -3.535751 1.907468 -0.484712
H -3.010126 1.998891 1.216456
C 2.772693 0.413499 -0.181818
O 2.380671 1.535313 0.312567
O 3.850902 0.106542 -0.755672
21
G: 25 x 25 i: 24 j: 3 E: 0.5467335038047167
C -1.906015 -0.275053 0.074526
H -2.534218 -0.382315 0.975738
H 0.460446 0.739216 0.243907
C -0.597379 -1.047102 0.390948
O -0.638265 -2.298448 0.484545
N 0.490179 -0.280193 0.381651
C 1.880003 -0.725708 0.539436
H 2.025967 -1.697642 0.064406
H 2.152954 -0.782859 1.602739
C -2.607851 -0.923739 -1.126338
H -2.570093 -2.004863 -0.970385
H -3.646266 -0.590808 -1.234888
H -2.048663 -0.669348 -2.032285
O -1.561779 1.143339 0.038022
C -2.702167 2.018095 0.220531
H -2.299402 3.034543 0.254477
H -3.428341 1.946708 -0.604557
H -3.235496 1.810031 1.164295
C 2.745347 0.414871 -0.175842
O 2.331695 1.58486 0.149257
O 3.720877 0.044062 -0.881145
21
G: 25 x 25 i: 23 j: 3 E: 0.5649393975727435
C -1.890624 -0.336732 0.022302
H -2.636069 -0.625857 0.781248
H 0.439234 0.758413 0.249218
C -0.57924 -1.049158 0.436175
O -0.585112 -2.297404 0.56618
N 0.491621 -0.259001 0.397218
C 1.890189 -0.667314 0.575079
H 2.059574 -1.650462 0.132062
H 2.161304 -0.68356 1.640202
C -2.325676 -0.862681 -1.355375
H -2.249363 -1.952725 -1.317689
H -3.348793 -0.567387 -1.614874
H -1.631976 -0.475276 -2.108188
O -1.682841 1.091905 0.231323
C -2.907655 1.864463 0.231776
H -2.616195 2.890011 0.476668
H -3.414904 1.860786 -0.745474
H -3.624015 1.502238 0.989747
C 2.731345 0.468976 -0.175141
O 2.289281 1.639124 0.10914
O 3.7174 0.097813 -0.865687
21
G: 25 x 25 i: 22 j: 3 E: 0.5936195021367894
C -1.869183 -0.395802 -0.057511
H -2.691581 -0.876171 0.494142
H 0.410712 0.759221 0.278232
C -0.571309 -1.07532 0.437148
O -0.541413 -2.321833 0.568741
N 0.483305 -0.259692 0.408618
C 1.888992 -0.632899 0.603492
H 2.086901 -1.613259 0.166241
H 2.151514 -0.637249 1.670848
C -2.013273 -0.674978 -1.564482
H -1.878595 -1.750795 -1.710541
H -2.989324 -0.370369 -1.959526
H -1.218753 -0.136045 -2.089742
O -1.831869 0.977992 0.435975
C -3.075095 1.699689 0.256908
H -2.930504 2.670365 0.740499
H -3.327224 1.864295 -0.801662
H -3.925348 1.182125 0.734578
C 2.706876 0.520915 -0.145946
O 2.231488 1.680813 0.127323
O 3.707671 0.172539 -0.827169
21
G: 25 x 25 i: 21 j: 3 E: 0.6258837013883749
C -1.842195 -0.419228 -0.189469
H -2.689799 -1.051396 0.111334
H 0.402484 0.740436 0.274146
C -0.573072 -1.109479 0.36003
O -0.530563 -2.353176 0.498707
N 0.478408 -0.283747 0.360835
C 1.880148 -0.639699 0.606621
H 2.116253 -1.602553 0.149858
H 2.099159 -0.670506 1.683374
C -1.738781 -0.342276 -1.723495
H -1.53418 -1.347538 -2.105666
H -2.657011 0.035897 -2.187955
H -0.900085 0.313202 -1.974911
O -1.984555 0.812569 0.589875
C -3.234614 1.509859 0.359974
H -3.24139 2.350595 1.060376
H -3.327556 1.902068 -0.663792
H -4.109413 0.867065 0.56114
C 2.70366 0.549965 -0.077294
O 2.192712 1.692581 0.207512
O 3.737632 0.242288 -0.727587
21
G: 25 x 25 i: 20 j: 3 E: 0.6682894793211744
C -1.810572 -0.366612 -0.344878
H -2.635592 -1.09224 -0.320547
H 0.44642 0.722582 0.251587
C -0.573942 -1.114292 0.204674
O -0.556258 -2.359771 0.320371
N 0.495353 -0.308794 0.260851
C 1.876761 -0.692265 0.572196
H 2.141405 -1.623008 0.067147
H 2.027902 -0.796168 1.656029
C -1.547249 0.125012 -1.777829
H -1.241224 -0.725056 -2.396781
H -2.436034 0.583293 -2.227641
H -0.732408 0.852929 -1.752879
O -2.134177 0.610061 0.70433
C -3.418784 1.257091 0.516138
H -3.571026 1.884332 1.400128
H -3.454036 1.89563 -0.379193
H -4.244142 0.52684 0.447932
C 2.73941 0.536337 0.019285
O 2.208548 1.659513 0.347601
O 3.811577 0.272797 -0.585959
21
G: 25 x 25 i: 19 j: 3 E: 0.7277057543651608
C -1.769859 -0.194423 -0.48003
H -2.520578 -0.922679 -0.817368
H 0.549064 0.71999 0.302156
C -0.563959 -1.049302 -0.023022
O -0.596214 -2.299235 -0.062565
N 0.533185 -0.306457 0.179498
C 1.88281 -0.790042 0.49395
H 2.130512 -1.663137 -0.112304
H 1.982562 -1.031448 1.561533
C -1.401318 0.784896 -1.603445
H -0.94226 0.234472 -2.431129
H -2.282317 1.316063 -1.983275
H -0.679123 1.513726 -1.228362
O -2.316413 0.33553 0.781604
C -3.663511 0.856238 0.641346
H -3.985324 1.136234 1.649657
H -3.718808 1.745336 -0.005082
H -4.360791 0.099834 0.240302
C 2.811399 0.459395 0.127973
O 2.30505 1.554821 0.574621
O 3.897752 0.233415 -0.465316
21
G: 25 x 25 i: 18 j: 3 E: 0.7738707323223935
C -1.733075 0.026973 -0.500329
H -2.362673 -0.566592 -1.177593
H 0.679083 0.736136 0.375198
C -0.549863 -0.916497 -0.16786
O -0.640736 -2.147318 -0.376102
N 0.575486 -0.270974 0.16588
C 1.891815 -0.873555 0.414002
H 2.071892 -1.699676 -0.27604
H 1.980189 -1.222287 1.45228
C -1.318783 1.355492 -1.143212
H -0.661437 1.168343 -1.997513
H -2.192476 1.922236 -1.486389
H -0.777037 1.962533 -0.413583
O -2.509435 0.071173 0.755196
C -3.89208 0.456303 0.541522
H -4.382828 0.378496 1.517297
H -4.00236 1.488445 0.174045
H -4.404313 -0.214089 -0.170338
C 2.898595 0.341401 0.158241
O 2.466788 1.418344 0.717649
O 3.963871 0.108121 -0.468332
21
G: 25 x 25 i: 17 j: 3 E: 0.793545470069148
C -1.700558 0.169956 -0.444435
H -2.196174 -0.265343 -1.323661
H 0.777471 0.773116 0.391549
C -0.542283 -0.817383 -0.143896
O -0.686701 -2.037633 -0.380138
N 0.609397 -0.229997 0.20704
C 1.902695 -0.897643 0.408807
H 2.008022 -1.740382 -0.276539
H 2.014188 -1.238378 1.447353
C -1.284606 1.621736 -0.696482
H -0.483833 1.664115 -1.440119
H -2.132343 2.2203 -1.049744
H -0.921278 2.058959 0.237603
O -2.658897 -0.08388 0.652294
C -4.0223 0.246757 0.283214
H -4.646573 -0.042319 1.135231
H -4.17045 1.320749 0.087904
H -4.357113 -0.309585 -0.609172
C 2.959683 0.259882 0.0977
O 2.606401 1.363254 0.661735
O 3.985012 -0.033126 -0.568783
21
G: 25 x 25 i: 16 j: 3 E: 0.802728608938196
C -1.67276 0.258275 -0.363667
H -2.032954 -0.045491 -1.357911
H 0.852343 0.807419 0.388813
C -0.540169 -0.755663 -0.042696
O -0.728992 -1.97679 -0.233288
N 0.640755 -0.195341 0.252396
C 1.920311 -0.897996 0.420182
H 1.96434 -1.770904 -0.23334
H 2.07204 -1.199842 1.465621
C -1.28708 1.738686 -0.342267
H -0.434128 1.922993 -1.001644
H -2.127004 2.364566 -0.665279
H -1.016291 2.023822 0.678197
O -2.764538 -0.164532 0.537772
C -4.075894 0.135084 -0.002535
H -4.79976 -0.267479 0.713912
H -4.26203 1.215118 -0.11935
H -4.240159 -0.344675 -0.982586
C 2.995535 0.210995 0.010734
O 2.703088 1.34686 0.545414
O 3.977774 -0.13984 -0.691362
21
G: 25 x 25 i: 15 j: 3 E: 0.8092379287627409
C -1.651383 0.309931 -0.279156
H -1.871812 0.123422 -1.34234
H 0.90321 0.835458 0.368071
C -0.539407 -0.717364 0.08055
O -0.756728 -1.942139 -0.030722
N 0.666169 -0.167536 0.285614
C 1.939554 -0.885943 0.43016
H 1.941445 -1.78809 -0.184001
H 2.13363 -1.143075 1.480625
C -1.321473 1.785888 -0.042833
H -0.445072 2.085455 -0.62476
H -2.167712 2.419116 -0.333408
H -1.116161 1.943195 1.019677
O -2.836851 -0.227263 0.41458
C -4.071073 0.077833 -0.279452
H -4.870122 -0.405948 0.292287
H -4.284922 1.158117 -0.334767
H -4.07782 -0.32087 -1.308407
C 3.01177 0.185004 -0.07705
O 2.759899 1.348865 0.417542
O 3.956709 -0.212727 -0.8046
21
G: 25 x 25 i: 14 j: 3 E: 0.8128645276519819
C -1.63986 0.338207 -0.202698
H -1.722135 0.269664 -1.300332
H 0.932345 0.861017 0.312469
C -0.538331 -0.689195 0.195506
O -0.76866 -1.91509 0.188748
N 0.683677 -0.142199 0.289946
C 1.955469 -0.863209 0.434754
H 1.937621 -1.79363 -0.135467
H 2.17767 -1.071736 1.490592
C -1.390765 1.788746 0.226548
H -0.506905 2.19866 -0.270469
H -2.252628 2.414326 -0.033087
H -1.241348 1.825321 1.309013
O -2.878059 -0.293619 0.278613
C -4.027956 0.050727 -0.530614
H -4.872544 -0.508506 -0.114245
H -4.273609 1.12567 -0.505808
H -3.894371 -0.239848 -1.586974
C 3.019137 0.174376 -0.153081
O 2.788097 1.36284 0.291115
O 3.941622 -0.264562 -0.8857
21
G: 25 x 25 i: 13 j: 3 E: 0.809893560155615
C -1.633614 0.353196 -0.130369
H -1.568908 0.432077 -1.228552
H 0.94027 0.892499 0.225785
C -0.53081 -0.660361 0.30194
O -0.758351 -1.880608 0.410651
N 0.694217 -0.108485 0.30157
C 1.972576 -0.813121 0.469796
H 1.945448 -1.786143 -0.023711
H 2.22375 -0.93598 1.532719
C -1.513257 1.741976 0.514909
H -0.612024 2.261182 0.178172
H -2.379823 2.358982 0.24986
H -1.47626 1.631853 1.601873
O -2.884346 -0.37686 0.106151
C -3.945823 0.036594 -0.787137
H -4.804098 -0.603755 -0.557329
H -4.247205 1.088752 -0.650304
H -3.673369 -0.099704 -1.848121
C 3.017244 0.174541 -0.227764
O 2.795325 1.39509 0.124116
O 3.921723 -0.322286 -0.945872
21
G: 25 x 25 i: 12 j: 3 E: 0.7870984643432166
C -1.629621 0.356333 -0.053117
H -1.413673 0.644332 -1.094582
H 0.920912 0.926717 0.135573
C -0.51514 -0.636995 0.391527
O -0.72739 -1.847126 0.593493
N 0.699461 -0.061385 0.345283
C 1.996428 -0.72368 0.543197
H 1.968315 -1.746139 0.163096
H 2.286629 -0.72179 1.603327
C -1.704277 1.599235 0.850484
H -0.769067 2.163092 0.829733
H -2.516087 2.26325 0.530436
H -1.901426 1.271205 1.874994
O -2.837206 -0.468737 -0.128665
C -3.814392 0.062457 -1.056906
H -4.640303 -0.656757 -1.072928
H -4.21154 1.046315 -0.756572
H -3.408045 0.161247 -2.078486
C 3.001584 0.19055 -0.298382
O 2.773694 1.440283 -0.079714
O 3.888473 -0.375567 -0.986664
21
G: 25 x 25 i: 11 j: 3 E: 0.7622433297474345
C -1.637541 0.34787 0.019677
H -1.333389 0.862493 -0.904972
H 0.892648 0.912229 0.076299
C -0.51457 -0.661521 0.390046
O -0.726704 -1.864801 0.627359
N 0.695493 -0.083247 0.280815
C 2.00399 -0.713715 0.502726
H 2.015818 -1.73093 0.108092
H 2.268823 -0.719374 1.569731
C -1.85301 1.359752 1.16014
H -0.923142 1.88998 1.380103
H -2.627494 2.092538 0.904965
H -2.169341 0.805328 2.04889
O -2.77571 -0.487848 -0.361673
C -3.724408 0.217447 -1.200388
H -4.490702 -0.515867 -1.473951
H -4.213487 1.062732 -0.688968
H -3.257627 0.605958 -2.122243
C 3.005352 0.236459 -0.303014
O 2.740348 1.477026 -0.076064
O 3.923388 -0.299392 -0.974469
21
G: 25 x 25 i: 10 j: 3 E: 0.760468411979673
C -1.650943 0.317071 0.146651
H -1.291374 1.147734 -0.478647
H 0.874071 0.885984 0.194747
C -0.513558 -0.729568 0.26962
O -0.725594 -1.95516 0.331792
N 0.690787 -0.133475 0.207002
C 2.004917 -0.777409 0.340548
H 2.047957 -1.699402 -0.24126
H 2.242955 -0.984808 1.393781
C -2.035546 0.816143 1.551006
H -1.154477 1.238323 2.043312
H -2.824427 1.576144 1.51409
H -2.392072 -0.04557 2.123549
O -2.682035 -0.344122 -0.654909
C -3.614003 0.597589 -1.243471
H -4.291645 0.003796 -1.866477
H -4.21181 1.143403 -0.495274
H -3.107104 1.343901 -1.879641
C 3.008109 0.322657 -0.240725
O 2.715092 1.493125 0.211443
O 3.952357 -0.063102 -0.975697
21
G: 25 x 25 i: 9 j: 3 E: 0.7611307645856868
C -1.677483 0.096197 0.359315
H -1.297741 1.081299 0.664107
H 0.86433 0.575097 0.74759
C -0.510612 -0.767897 -0.17332
O -0.718244 -1.787272 -0.862075
N 0.686057 -0.256929 0.157574
C 2.004497 -0.834243 -0.139052
H 2.033067 -1.235693 -1.15299
H 2.266284 -1.618768 0.585266
C -2.338701 -0.645215 1.532203
H -1.612217 -0.784703 2.339336
H -3.20932 -0.105542 1.921117
H -2.650224 -1.621982 1.150596
O -2.511188 0.355199 -0.823061
C -3.38936 1.494268 -0.639899
H -3.921608 1.622096 -1.588836
H -4.131618 1.347074 0.162064
H -2.831316 2.420113 -0.417243
C 2.993014 0.41143 0.024406
O 2.708952 1.083311 1.086243
O 3.920459 0.547796 -0.813101
21
G: 25 x 25 i: 8 j: 3 E: 0.7407491019621375
C -1.71379 -0.005026 0.393456
H -1.346454 0.821228 1.016622
H 0.842899 0.449816 0.858953
C -0.524715 -0.806173 -0.184534
O -0.724108 -1.757487 -0.970539
N 0.667319 -0.32741 0.197936
C 1.988451 -0.850166 -0.177174
H 2.000205 -1.157852 -1.223588
H 2.277977 -1.691644 0.468025
C -2.623635 -0.964297 1.171309
H -2.098535 -1.359975 2.047369
H -3.547992 -0.475612 1.497482
H -2.853417 -1.784629 0.485628
O -2.31097 0.643318 -0.790287
C -3.10959 1.801354 -0.437922
H -3.473184 2.218195 -1.383577
H -3.978773 1.553885 0.194352
H -2.518576 2.571477 0.086676
C 2.960345 0.393262 0.080908
O 2.688196 0.958641 1.205792
O 3.867159 0.622185 -0.758686
21
G: 25 x 25 i: 7 j: 3 E: 0.715810510017036
C -1.754622 -0.04397 0.394734
H -1.417222 0.668321 1.159462
H 0.8028 0.42303 0.878397
C -0.556189 -0.882876 -0.109813
O -0.742104 -1.866475 -0.861081
N 0.632166 -0.378443 0.245661
C 1.956138 -0.895715 -0.12622
H 1.961348 -1.237446 -1.162074
H 2.263233 -1.711458 0.543301
C -2.853297 -0.979451 0.904698
H -2.528908 -1.489446 1.818503
H -3.783877 -0.439139 1.1075
H -3.007359 -1.72134 0.116605
O -2.100389 0.793786 -0.774499
C -2.811628 1.999129 -0.393538
H -2.992182 2.551511 -1.322228
H -3.782246 1.795547 0.089631
H -2.219933 2.632838 0.288587
C 2.914469 0.368014 0.081922
O 2.64621 0.965539 1.190834
O 3.810027 0.580387 -0.773756
21
G: 25 x 25 i: 6 j: 3 E: 0.7008409492827923
C -1.797526 -0.057364 0.376127
H -1.517614 0.558716 1.241896
H 0.749867 0.434093 0.857982
C -0.597611 -0.953171 -0.02398
O -0.769987 -1.993363 -0.699995
N 0.587055 -0.414433 0.287879
C 1.914455 -0.94617 -0.048868
H 1.920766 -1.361465 -1.057551
H 2.229578 -1.709082 0.676855
C -3.030682 -0.918379 0.643713
H -2.90281 -1.491837 1.568564
H -3.937424 -0.309959 0.722804
H -3.107128 -1.616415 -0.19379
O -1.885497 0.904106 -0.745402
C -2.525624 2.145737 -0.354265
H -2.50876 2.788496 -1.24114
H -3.573301 2.011362 -0.035236
H -1.983832 2.651274 0.462731
C 2.86394 0.336459 0.065774
O 2.593784 1.010357 1.12925
O 3.756646 0.491797 -0.805012
21
G: 25 x 25 i: 5 j: 3 E: 0.6978300082446367
C -1.837407 -0.062229 0.341023
H -1.659089 0.458283 1.293658
H 0.687421 0.477155 0.799323
C -0.637135 -1.007001 0.063145
O -0.79658 -2.109836 -0.509488
N 0.541305 -0.437543 0.338796
C 1.87551 -0.988817 0.067279
H 1.887343 -1.520135 -0.885479
H 2.198159 -1.657341 0.877873
C -3.148134 -0.844496 0.347249
H -3.206275 -1.477023 1.239776
H -4.013977 -0.174845 0.327069
H -3.139613 -1.493099 -0.531692
O -1.671876 0.994896 -0.678312
C -2.296288 2.244055 -0.285161
H -2.07168 2.959292 -1.083587
H -3.391597 2.166274 -0.17668
H -1.886627 2.628862 0.663885
C 2.813079 0.307544 0.030137
O 2.536414 1.099982 1.006015
O 3.705673 0.365089 -0.852932
21
G: 25 x 25 i: 4 j: 3 E: 0.6880748313942604
C -1.868884 -0.082961 0.292848
H -1.865418 0.320054 1.318056
H 0.61081 0.55142 0.697215
C -0.657262 -1.043901 0.151693
O -0.798164 -2.205601 -0.295138
N 0.503278 -0.440216 0.428654
C 1.853269 -0.992753 0.252424
H 1.87319 -1.694815 -0.582601
H 2.196957 -1.487024 1.171947
C -3.175506 -0.805538 -0.025837
H -3.358049 -1.58645 0.718493
H -4.022422 -0.11132 -0.03596
H -3.066176 -1.288523 -0.998864
O -1.48023 1.071213 -0.537861
C -2.173345 2.290668 -0.16503
H -1.747087 3.082396 -0.789653
H -3.260901 2.243236 -0.342744
H -2.011831 2.547508 0.895542
C 2.759374 0.294843 -0.036873
O 2.469743 1.251105 0.772868
O 3.646413 0.201142 -0.923289
21
G: 25 x 25 i: 3 j: 3 E: 0.6408610990019952
C -1.889415 -0.134142 0.244217
H -2.078531 0.131157 1.297813
H 0.544778 0.634246 0.551682
C -0.641815 -1.060746 0.219586
O -0.746994 -2.275114 -0.072209
N 0.487467 -0.39291 0.475509
C 1.857011 -0.923013 0.407781
H 1.904349 -1.765055 -0.284711
H 2.202506 -1.231724 1.404321
C -3.098775 -0.831931 -0.378956
H -3.167151 -1.844573 0.023931
H -4.028726 -0.28331 -0.194475
H -2.925644 -0.907105 -1.456277
O -1.402296 1.118299 -0.352564
C -2.242521 2.259655 -0.036658
H -1.726089 3.134828 -0.443047
H -3.245342 2.19202 -0.488917
H -2.365834 2.390934 1.05189
C 2.733666 0.314769 -0.103797
O 2.412955 1.393651 0.515617
O 3.631898 0.082089 -0.953819
21
G: 25 x 25 i: 2 j: 3 E: 0.583287552526599
C -1.906177 -0.178192 0.187253
H -2.247167 -0.026467 1.226143
H 0.505454 0.685743 0.403373
C -0.628543 -1.062494 0.273045
O -0.709805 -2.30762 0.140475
N 0.483165 -0.343429 0.436293
C 1.861218 -0.852338 0.470176
H 1.945839 -1.761903 -0.12706
H 2.175718 -1.049428 1.504742
C -2.988534 -0.872698 -0.64318
H -2.974814 -1.933965 -0.384278
H -3.982855 -0.444754 -0.476167
H -2.721108 -0.769523 -1.699676
O -1.420484 1.143611 -0.222149
C -2.360312 2.20881 0.075259
H -1.850999 3.141147 -0.186345
H -3.290867 2.129626 -0.509382
H -2.628805 2.234538 1.145282
C 2.73918 0.339178 -0.139149
O 2.384662 1.471897 0.350085
O 3.668934 0.030286 -0.929798
21
G: 25 x 25 i: 1 j: 3 E: 0.5504899282677798
C -1.911934 -0.222429 0.128251
H -2.400612 -0.186657 1.117942
H 0.479027 0.715434 0.295818
C -0.615342 -1.056186 0.331555
O -0.680058 -2.309982 0.333253
N 0.484903 -0.308696 0.396369
C 1.868257 -0.78879 0.506896
H 1.986435 -1.737504 -0.019861
H 2.155648 -0.905895 1.561435
C -2.828913 -0.910195 -0.888819
H -2.803383 -1.980986 -0.672297
H -3.856752 -0.533096 -0.848667
H -2.418738 -0.739744 -1.88935
O -1.47524 1.154126 -0.104667
C -2.508276 2.134519 0.168185
H -2.035395 3.112877 0.042252
H -3.361656 2.054689 -0.523893
H -2.894123 2.051416 1.198812
C 2.745443 0.370609 -0.162423
O 2.360333 1.529682 0.230932
O 3.702442 0.01932 -0.901849
21
G: 25 x 25 i: 0 j: 3 E: 0.5467344562057406
C -1.906049 -0.25087 0.172379
H -2.455235 -0.348534 1.124619
H 0.475446 0.736924 0.298241
C -0.587381 -1.05123 0.338132
O -0.647999 -2.30263 0.418156
N 0.502595 -0.288883 0.371038
C 1.891798 -0.747572 0.492338
H 1.931212 -1.67268 -0.085812
H 2.264299 -0.923757 1.511513
C -2.731773 -0.888508 -0.952829
H -2.706642 -1.969283 -0.792133
H -3.766953 -0.529954 -0.967689
H -2.252797 -0.653702 -1.908439
O -1.590166 1.151252 -0.07905
C -2.709912 2.043641 0.141662
H -2.321171 3.05543 0.000474
H -3.534146 1.873883 -0.567601
H -3.114826 1.953118 1.16354
C 2.747577 0.409255 -0.207171
O 2.557582 1.533813 0.385017
O 3.647718 0.04412 -1.009254
21
G: 25 x 25 i: 0 j: 4 E: 0.6878865557409881
C -1.869249 -0.261486 0.247873
H -2.381413 -0.410821 1.213942
H 0.463006 0.73442 0.455934
C -0.536701 -1.056365 0.288172
O -0.576467 -2.310204 0.297347
N 0.538859 -0.285585 0.449445
C 1.936803 -0.744124 0.537505
H 2.031156 -1.700044 0.0201
H 2.240117 -0.834412 1.588396
C -2.730084 -0.863725 -0.870581
H -2.688682 -1.949629 -0.754005
H -3.768797 -0.516773 -0.832956
H -2.288839 -0.587033 -1.833215
O -1.644196 1.133052 -0.125138
C -2.793459 1.984956 0.105616
H -2.469202 3.001081 -0.13723
H -3.651511 1.720124 -0.531622
H -3.12548 1.95371 1.157703
C 2.783792 0.420731 -0.165931
O 2.609562 1.535677 0.437361
O 3.501229 0.105043 -1.153205
21
G: 25 x 25 i: 1 j: 4 E: 0.6950445680504345
C -1.853492 -0.217841 0.286368
H -2.216413 -0.238408 1.329027
H 0.497253 0.722961 0.492196
C -0.533832 -1.037418 0.218821
O -0.578621 -2.28884 0.144985
N 0.551051 -0.29782 0.455735
C 1.942895 -0.781925 0.50922
H 2.017379 -1.713689 -0.053394
H 2.250969 -0.926395 1.552597
C -2.883355 -0.896234 -0.622817
H -2.813305 -1.971629 -0.442035
H -3.903163 -0.540778 -0.439282
H -2.608792 -0.692082 -1.66255
O -1.654459 1.120926 -0.270943
C -2.732268 2.038148 0.046545
H -2.426804 3.010832 -0.350082
H -3.687257 1.744222 -0.416488
H -2.89148 2.126361 1.134948
C 2.804984 0.400765 -0.144139
O 2.654305 1.48808 0.513938
O 3.510607 0.121132 -1.150366
21
G: 25 x 25 i: 2 j: 4 E: 0.732391094272316
C -1.827973 -0.181742 0.329511
H -2.042572 -0.089328 1.40834
H 0.541635 0.700262 0.577295
C -0.52488 -1.013394 0.151727
O -0.573771 -2.250879 -0.04299
N 0.568627 -0.318152 0.480507
C 1.956127 -0.820903 0.470809
H 2.005739 -1.712865 -0.15518
H 2.282079 -1.038767 1.495664
C -2.976009 -0.91322 -0.370186
H -2.877984 -1.977334 -0.143176
H -3.958732 -0.540032 -0.062913
H -2.855343 -0.775948 -1.449387
O -1.688237 1.093197 -0.38304
C -2.722037 2.051946 -0.037129
H -2.459031 2.97858 -0.556051
H -3.724132 1.729362 -0.361014
H -2.757961 2.245246 1.048645
C 2.820811 0.392947 -0.118613
O 2.697585 1.434219 0.61605
O 3.503131 0.175223 -1.155331
21
G: 25 x 25 i: 3 j: 4 E: 0.7963078350003343
C -1.794292 -0.142701 0.3706
H -1.866689 0.067786 1.450795
H 0.600872 0.652252 0.697081
C -0.516694 -0.982113 0.09049
O -0.58698 -2.185391 -0.249022
N 0.59356 -0.352492 0.497915
C 1.973765 -0.868101 0.399387
H 1.993478 -1.691586 -0.315503
H 2.323087 -1.19222 1.387607
C -3.017883 -0.926307 -0.105283
H -2.944342 -1.950959 0.264962
H -3.954725 -0.465999 0.226253
H -2.992132 -0.958335 -1.198227
O -1.752372 1.049022 -0.490161
C -2.74094 2.047939 -0.123118
H -2.542591 2.915373 -0.760223
H -3.775264 1.707687 -0.291255
H -2.647342 2.350633 0.933775
C 2.838446 0.390326 -0.087568
O 2.747041 1.351965 0.753809
O 3.491851 0.274223 -1.15809
21
G: 25 x 25 i: 4 j: 4 E: 0.852705522602264
C -1.759841 -0.090139 0.396583
H -1.673304 0.271282 1.433892
H 0.680907 0.568037 0.812815
C -0.517884 -0.941552 0.019191
O -0.636179 -2.089536 -0.464754
N 0.626377 -0.38507 0.440205
C 1.988409 -0.917108 0.240258
H 1.9806 -1.60606 -0.60507
H 2.338336 -1.413975 1.153739
C -3.014489 -0.942212 0.220557
H -3.009039 -1.762249 0.944621
H -3.923293 -0.346552 0.355834
H -2.990072 -1.377869 -0.780158
O -1.893846 0.971122 -0.617084
C -2.780572 2.042098 -0.199384
H -2.728872 2.79986 -0.987731
H -3.828069 1.717556 -0.084698
H -2.4578 2.495426 0.753209
C 2.878695 0.38645 -0.036826
O 2.815264 1.191446 0.958981
O 3.522269 0.442569 -1.117164
21
G: 25 x 25 i: 5 j: 4 E: 0.8688260165672546
C -1.722878 -0.039458 0.411981
H -1.497395 0.469907 1.361151
H 0.764257 0.495224 0.883296
C -0.506038 -0.876139 -0.066091
O -0.660265 -1.96911 -0.6563
N 0.666002 -0.370195 0.342322
C 2.007826 -0.912867 0.057229
H 1.985448 -1.444686 -0.894393
H 2.334831 -1.571693 0.871459
C -2.927559 -0.966672 0.55089
H -2.806389 -1.614519 1.425825
H -3.858715 -0.400171 0.652231
H -2.953391 -1.597209 -0.340605
O -2.105044 0.85591 -0.698582
C -2.937432 1.960539 -0.259676
H -3.111543 2.578585 -1.146653
H -3.911503 1.635988 0.143817
H -2.437438 2.573291 0.509292
C 2.937825 0.391234 0.011324
O 2.888257 1.012686 1.132557
O 3.591971 0.616367 -1.039626
21
G: 25 x 25 i: 6 j: 4 E: 0.8737977292148571
C -1.687886 0.013229 0.412948
H -1.391912 0.650587 1.25832
H 0.824613 0.473027 0.909291
C -0.484614 -0.790874 -0.140884
O -0.661116 -1.838208 -0.802576
N 0.700838 -0.332161 0.286314
C 2.028933 -0.88369 -0.042763
H 1.998392 -1.326505 -1.038607
H 2.334858 -1.621522 0.709516
C -2.779266 -0.980417 0.807225
H -2.489631 -1.527403 1.711308
H -3.735711 -0.478159 0.984181
H -2.86444 -1.689992 -0.019544
O -2.304402 0.724882 -0.727417
C -3.152652 1.821036 -0.298322
H -3.524612 2.292635 -1.214145
H -4.015123 1.49066 0.305053
H -2.594929 2.570981 0.28746
C 2.988794 0.396782 0.032486
O 2.946494 0.914608 1.205883
O 3.653121 0.703021 -0.991036
21
G: 25 x 25 i: 7 j: 4 E: 0.8888162160383217
C -1.658316 0.087202 0.390511
H -1.333463 0.858045 1.102701
H 0.865511 0.506207 0.893857
C -0.465142 -0.699497 -0.20177
O -0.655879 -1.727102 -0.888301
N 0.726375 -0.281212 0.251671
C 2.044092 -0.859568 -0.074128
H 2.012612 -1.284122 -1.077814
H 2.324259 -1.617495 0.668125
C -2.596884 -0.932357 1.040175
H -2.138699 -1.356949 1.940233
H -3.559679 -0.483814 1.305982
H -2.737464 -1.726352 0.302007
O -2.478287 0.570611 -0.740643
C -3.384141 1.633468 -0.347594
H -3.915022 1.931333 -1.258187
H -4.12536 1.315155 0.40474
H -2.847249 2.50934 0.054255
C 3.031951 0.396633 0.032955
O 2.989009 0.894663 1.215088
O 3.712728 0.70706 -0.978457
21
G: 25 x 25 i: 8 j: 4 E: 0.9135201369008428
C -1.636289 0.20417 0.31886
H -1.306096 1.148784 0.77209
H 0.885397 0.640304 0.789226
C -0.45458 -0.638968 -0.211449
O -0.652845 -1.724533 -0.796369
N 0.737697 -0.207154 0.230867
C 2.046527 -0.848729 9.9e-05
H 2.023796 -1.379058 -0.952209
H 2.291908 -1.528002 0.826172
C -2.385048 -0.678659 1.325452
H -1.761472 -0.865637 2.206372
H -3.328635 -0.222769 1.643767
H -2.578772 -1.624329 0.811662
O -2.62967 0.327849 -0.76454
C -3.597792 1.37662 -0.506302
H -4.2587 1.4002 -1.379489
H -4.20909 1.191608 0.392778
H -3.121009 2.36528 -0.394012
C 3.06324 0.388099 -0.007812
O 3.009146 1.013511 1.111877
O 3.771175 0.571736 -1.031657
21
G: 25 x 25 i: 9 j: 4 E: 0.9338619892496354
C -1.62203 0.351951 0.044649
H -1.300732 1.341604 -0.309647
H 0.879719 0.951296 0.250061
C -0.457319 -0.665016 0.045879
O -0.655402 -1.893589 0.120195
N 0.732898 -0.063367 0.2214
C 2.034623 -0.728315 0.425493
H 2.036573 -1.683484 -0.100351
H 2.233642 -0.865789 1.496
C -2.134165 0.422801 1.492247
H -1.345366 0.806019 2.147784
H -3.019686 1.061477 1.583155
H -2.385472 -0.600443 1.786224
O -2.76114 -0.240564 -0.669087
C -3.781082 0.738901 -0.990974
H -4.549666 0.200468 -1.555867
H -4.249584 1.187777 -0.099573
H -3.388862 1.559357 -1.616221
C 3.07768 0.31517 -0.194081
O 2.995617 1.441104 0.417384
O 3.827539 -0.072909 -1.127322
21
G: 25 x 25 i: 10 j: 4 E: 0.9336019299316831
C -1.616093 0.307488 -0.156613
H -1.329169 0.986266 -0.973731
H 0.857304 0.93726 -0.036323
C -0.470244 -0.689875 0.152434
O -0.666929 -1.860861 0.524893
N 0.718563 -0.055954 0.179936
C 2.017838 -0.629146 0.581721
H 2.047366 -1.683404 0.304424
H 2.182768 -0.499633 1.659163
C -1.880459 1.108352 1.131023
H -0.969557 1.635657 1.429695
H -2.690161 1.835484 1.001495
H -2.158125 0.395462 1.91331
O -2.85701 -0.440273 -0.361089
C -3.904777 0.374452 -0.945367
H -4.75339 -0.297869 -1.110948
H -4.231221 1.198431 -0.289988
H -3.602199 0.811543 -1.912681
C 3.070836 0.248378 -0.24282
O 2.958056 1.488617 0.070281
O 3.855113 -0.34316 -1.029864
21
G: 25 x 25 i: 11 j: 4 E: 0.9350455761577905
C -1.61382 0.272818 -0.232063
H -1.390907 0.746214 -1.200924
H 0.848276 0.935114 0.008662
C -0.470523 -0.706401 0.154502
O -0.663273 -1.886545 0.49642
N 0.706363 -0.054001 0.239841
C 2.009933 -0.627916 0.627196
H 2.02367 -1.68824 0.372523
H 2.197688 -0.475323 1.697634
C -1.731326 1.346065 0.865994
H -0.790623 1.892622 0.969697
H -2.533561 2.059609 0.644452
H -1.957714 0.840148 1.809345
O -2.891514 -0.432334 -0.145294
C -3.959188 0.269045 -0.831094
H -4.841847 -0.374808 -0.754694
H -4.196795 1.246716 -0.380741
H -3.730205 0.435358 -1.897914
C 3.051654 0.223619 -0.237989
O 2.954046 1.471335 0.050083
O 3.814128 -0.390305 -1.029485
21
G: 25 x 25 i: 12 j: 4 E: 0.9594840226345696
C -1.615407 0.249628 -0.289289
H -1.487186 0.532471 -1.346435
H 0.848168 0.936458 0.113422
C -0.469265 -0.716263 0.132093
O -0.659519 -1.917579 0.393537
N 0.695475 -0.059208 0.301293
C 1.999535 -0.661203 0.643943
H 1.992732 -1.712923 0.355639
H 2.208717 -0.544141 1.714561
C -1.615551 1.507592 0.596873
H -0.693831 2.081533 0.477128
H -2.461854 2.157614 0.345213
H -1.709426 1.195517 1.640727
O -2.89574 -0.371136 0.054729
C -4.002755 0.189886 -0.693455
H -4.889114 -0.380937 -0.396971
H -4.181516 1.25552 -0.473632
H -3.861885 0.089417 -1.783415
C 3.033767 0.206667 -0.213846
O 2.956493 1.445379 0.117149
O 3.771882 -0.388404 -1.042066
21
G: 25 x 25 i: 13 j: 4 E: 0.9832109455128375
C -1.635473 0.21545 -0.359748
H -1.662613 0.289494 -1.459603
H 0.833179 0.888399 0.21125
C -0.487303 -0.757136 0.045445
O -0.687259 -1.974966 0.210174
N 0.680576 -0.122598 0.260045
C 1.974354 -0.759082 0.57565
H 1.987496 -1.768137 0.161823
H 2.144514 -0.773775 1.659415
C -1.47531 1.61752 0.247905
H -0.625745 2.148551 -0.190157
H -2.376671 2.213429 0.063633
H -1.324649 1.527767 1.326877
O -2.873372 -0.262213 0.26571
C -4.058324 0.186892 -0.435055
H -4.909056 -0.266003 0.084943
H -4.183284 1.282711 -0.42336
H -4.067779 -0.141901 -1.488487
C 3.028704 0.213439 -0.131637
O 2.926903 1.40159 0.346453
O 3.801314 -0.270016 -1.000089
21
G: 25 x 25 i: 14 j: 4 E: 0.9858886285765038
C -1.655568 0.174874 -0.424369
H -1.834657 0.078411 -1.508021
H 0.798781 0.847659 0.289366
C -0.494532 -0.792511 -0.047643
O -0.688324 -2.021928 0.019577
N 0.659468 -0.165375 0.241256
C 1.951053 -0.811934 0.542994
H 1.988739 -1.783956 0.049499
H 2.090049 -0.912874 1.626471
C -1.397223 1.64594 -0.076979
H -0.591753 2.058973 -0.691301
H -2.301039 2.23983 -0.254824
H -1.124696 1.727335 0.978852
O -2.808127 -0.16342 0.424052
C -4.070462 0.205822 -0.181651
H -4.850153 -0.131941 0.509168
H -4.181478 1.292992 -0.330714
H -4.221609 -0.285651 -1.15798
C 3.010283 0.228573 -0.051408
O 2.87632 1.37174 0.519791
O 3.81391 -0.171109 -0.934042
21
G: 25 x 25 i: 15 j: 4 E: 0.9803069180525199
C -1.6776 0.119925 -0.484218
H -1.992106 -0.125158 -1.510973
H 0.74908 0.820327 0.336157
C -0.49258 -0.824964 -0.134023
O -0.660151 -2.061522 -0.144642
N 0.631748 -0.192299 0.240502
C 1.92745 -0.827813 0.547685
H 1.991542 -1.779784 0.019098
H 2.042703 -0.966707 1.629564
C -1.372933 1.616624 -0.379294
H -0.588249 1.903239 -1.085673
H -2.271082 2.204926 -0.599417
H -1.046694 1.848629 0.638598
O -2.717908 -0.078442 0.541591
C -4.04466 0.239559 0.05421
H -4.733026 0.013953 0.87549
H -4.164683 1.300236 -0.222197
H -4.321949 -0.371583 -0.821489
C 2.981747 0.25234 0.018047
O 2.814376 1.370209 0.628912
O 3.811642 -0.099746 -0.860499
21
G: 25 x 25 i: 16 j: 4 E: 0.9708504407026339
C -1.706107 0.032699 -0.534255
H -2.14689 -0.364984 -1.460358
H 0.681242 0.795081 0.352024
C -0.488905 -0.8736 -0.202848
O -0.612073 -2.115622 -0.25687
N 0.598373 -0.2188 0.23472
C 1.903852 -0.822777 0.563917
H 2.006621 -1.763405 0.021394
H 1.994975 -0.976693 1.645953
C -1.3834 1.51931 -0.699818
H -0.625124 1.664026 -1.474799
H -2.282211 2.082958 -0.974894
H -1.008589 1.91373 0.249196
O -2.606818 0.010681 0.636321
C -3.978648 0.321988 0.285114
H -4.558835 0.223995 1.208691
H -4.106549 1.345808 -0.102476
H -4.383031 -0.377732 -0.465935
C 2.942009 0.29406 0.079884
O 2.729585 1.396381 0.704224
O 3.802679 -0.021598 -0.7829
21
G: 25 x 25 i: 17 j: 4 E: 0.9584286558274471
C -1.740671 -0.102476 -0.551452
H -2.298721 -0.668531 -1.310365
H 0.595935 0.769606 0.341669
C -0.487449 -0.952749 -0.216386
O -0.552843 -2.200597 -0.259827
N 0.562777 -0.248095 0.233023
C 1.886306 -0.792326 0.592906
H 2.038878 -1.732888 0.062216
H 1.962613 -0.931978 1.678019
C -1.426728 1.307509 -1.059844
H -0.716383 1.263645 -1.890209
H -2.336918 1.818047 -1.39495
H -0.987467 1.893254 -0.247168
O -2.473947 0.135651 0.709532
C -3.86278 0.489648 0.483498
H -4.320168 0.573253 1.474925
H -3.985182 1.450018 -0.042116
H -4.399066 -0.283599 -0.092795
C 2.888101 0.360961 0.117335
O 2.620116 1.460187 0.724569
O 3.777469 0.070063 -0.725115
21
G: 25 x 25 i: 18 j: 4 E: 0.9363158857886447
C -1.783968 -0.287081 -0.488162
H -2.459841 -1.019558 -0.95048
H 0.500667 0.742981 0.298113
C -0.498082 -1.064771 -0.112879
O -0.509834 -2.313814 -0.049046
N 0.532539 -0.278764 0.235479
C 1.881386 -0.728797 0.627514
H 2.092106 -1.683711 0.144421
H 1.959515 -0.811612 1.718537
C -1.516391 0.874839 -1.452002
H -0.949232 0.52091 -2.317726
H -2.452079 1.32727 -1.800969
H -0.931284 1.645309 -0.943095
O -2.301898 0.360684 0.733499
C -3.679402 0.795357 0.591542
H -3.978081 1.180977 1.571865
H -3.806006 1.595112 -0.154696
H -4.350132 -0.036578 0.315415
C 2.821917 0.452962 0.099187
O 2.490971 1.565047 0.647991
O 3.732489 0.167483 -0.722561
21
G: 25 x 25 i: 19 j: 4 E: 0.8838644493444008
C -1.831929 -0.446908 -0.312753
H -2.614745 -1.215357 -0.377926
H 0.394878 0.705686 0.26842
C -0.525635 -1.16512 0.099578
O -0.502288 -2.397123 0.309887
N 0.500505 -0.313664 0.26013
C 1.881505 -0.661261 0.639544
H 2.137182 -1.63141 0.211279
H 1.995662 -0.670154 1.730872
C -1.665248 0.257454 -1.666505
H -1.340429 -0.469572 -2.417663
H -2.603702 0.713497 -2.003729
H -0.901209 1.033987 -1.584723
O -2.081572 0.633351 0.657939
C -3.397178 1.229542 0.516827
H -3.493198 1.946618 1.338509
H -3.529417 1.765262 -0.435507
H -4.202707 0.47925 0.600546
C 2.742057 0.53187 0.008846
O 2.366765 1.659129 0.491783
O 3.646183 0.23769 -0.817636
21
G: 25 x 25 i: 20 j: 4 E: 0.8148236937850015
C -1.863519 -0.486123 -0.132385
H -2.692044 -1.176843 0.077422
H 0.331619 0.687923 0.352915
C -0.543033 -1.195279 0.245258
O -0.502853 -2.42921 0.441697
N 0.474995 -0.326343 0.346969
C 1.884619 -0.64722 0.628157
H 2.12413 -1.618445 0.192862
H 2.077478 -0.642189 1.708565
C -1.824076 -0.141114 -1.630092
H -1.654588 -1.059117 -2.202444
H -2.758948 0.317748 -1.973016
H -0.9913 0.542616 -1.812957
O -1.912554 0.807114 0.564861
C -3.160624 1.521395 0.37203
H -3.098785 2.41061 1.007268
H -3.318643 1.841566 -0.668671
H -4.032994 0.919673 0.681209
C 2.685802 0.5492 -0.073325
O 2.334741 1.678063 0.420357
O 3.532428 0.250994 -0.958141
21
G: 25 x 25 i: 21 j: 4 E: 0.765542085728157
C -1.876316 -0.45953 0.023311
H -2.697016 -1.05391 0.449135
H 0.330393 0.697391 0.455785
C -0.542204 -1.17587 0.332198
O -0.508968 -2.421391 0.447205
N 0.477724 -0.31523 0.444259
C 1.900329 -0.654086 0.617064
H 2.092029 -1.62696 0.162177
H 2.171004 -0.656575 1.680623
C -2.004682 -0.408314 -1.50967
H -1.914616 -1.428514 -1.896023
H -2.961943 0.013955 -1.836876
H -1.180421 0.194113 -1.90211
O -1.8007 0.937764 0.458738
C -3.025082 1.684862 0.245648
H -2.855755 2.670475 0.689923
H -3.270886 1.814161 -0.818834
H -3.889253 1.210363 0.742105
C 2.670211 0.533974 -0.134077
O 2.376752 1.665592 0.387581
O 3.445273 0.223771 -1.078845
21
G: 25 x 25 i: 22 j: 4 E: 0.7312276710108563
C -1.879395 -0.393887 0.146809
H -2.63832 -0.859682 0.793318
H 0.376182 0.719548 0.492079
C -0.536276 -1.127353 0.368157
O -0.532149 -2.378762 0.428481
N 0.502567 -0.295642 0.483372
C 1.921315 -0.676169 0.593257
H 2.064962 -1.64943 0.121749
H 2.232086 -0.698501 1.645512
C -2.253604 -0.629822 -1.327402
H -2.20022 -1.707362 -1.508305
H -3.258328 -0.266348 -1.571878
H -1.514437 -0.121978 -1.954524
O -1.715215 1.05019 0.298874
C -2.947354 1.799527 0.158235
H -2.69205 2.840743 0.376659
H -3.370107 1.742679 -0.856046
H -3.719119 1.460569 0.870911
C 2.700251 0.496893 -0.172843
O 2.464302 1.630135 0.372751
O 3.429532 0.172701 -1.1489
21
G: 25 x 25 i: 23 j: 4 E: 0.7036897376110574
C -1.876454 -0.32098 0.211539
H -2.526144 -0.626897 1.047671
H 0.426579 0.735436 0.468893
C -0.534414 -1.082514 0.345742
O -0.558023 -2.335554 0.389832
N 0.525667 -0.282757 0.4683
C 1.933465 -0.706635 0.56581
H 2.047178 -1.675874 0.078019
H 2.244306 -0.756424 1.617148
C -2.513826 -0.783793 -1.108598
H -2.476965 -1.876468 -1.113403
H -3.549971 -0.443787 -1.217621
H -1.912691 -0.396895 -1.937335
O -1.661804 1.116797 0.07915
C -2.881726 1.895885 0.129204
H -2.570954 2.944357 0.099715
H -3.549273 1.69723 -0.723239
H -3.449266 1.713609 1.058247
C 2.748649 0.454866 -0.179807
O 2.549931 1.584526 0.387316
O 3.467818 0.124736 -1.161239
21
G: 25 x 25 i: 24 j: 4 E: 0.6878865285289066
C -1.901457 -0.262238 0.169013
H -2.492028 -0.389182 1.092385
H 0.411014 0.776138 0.389235
C -0.570946 -1.031516 0.382222
O -0.599881 -2.284216 0.441637
N 0.49633 -0.238989 0.477609
C 1.897829 -0.673703 0.615655
H 1.902782 -1.66067 0.150504
H 2.289093 -0.718 1.640175
C -2.655288 -0.900236 -1.005141
H -2.610951 -1.982707 -0.861059
H -3.697322 -0.567211 -1.064622
H -2.136244 -0.637945 -1.932158
O -1.609485 1.152251 -0.044613
C -2.763851 2.01215 0.121911
H -2.39573 3.035725 0.014239
H -3.540522 1.829168 -0.635525
H -3.223454 1.897417 1.117806
C 2.72689 0.400326 -0.237003
O 2.795085 1.512795 0.396301
O 3.366781 -0.028143 -1.235098
21
G: 25 x 25 i: 24 j: 5 E: 0.8209823403431074
C -1.889637 -0.29649 0.069966
H -2.581683 -0.444734 0.916489
H 0.332869 0.832002 0.366678
C -0.566168 -0.993097 0.48553
O -0.538627 -2.242891 0.578164
N 0.473621 -0.158465 0.563853
C 1.884021 -0.555279 0.754776
H 1.968822 -1.614992 0.509618
H 2.188725 -0.353677 1.787974
C -2.450263 -0.973849 -1.187533
H -2.366363 -2.052399 -1.032315
H -3.492796 -0.69844 -1.382509
H -1.83051 -0.683832 -2.041664
O -1.624904 1.141436 0.066371
C -2.825928 1.950237 0.128779
H -2.487977 2.988501 0.19601
H -3.458352 1.836264 -0.764893
H -3.438232 1.711458 1.015414
C 2.729419 0.381218 -0.241268
O 2.812903 1.574723 0.201823
O 3.170815 -0.159185 -1.293768
21
G: 25 x 25 i: 23 j: 5 E: 0.8345690451096743
C -1.866212 -0.358647 0.013514
H -2.654761 -0.698183 0.704278
H 0.305153 0.851258 0.385162
C -0.551541 -0.995215 0.528832
O -0.487825 -2.240424 0.653812
N 0.46982 -0.13545 0.582566
C 1.887822 -0.492917 0.790045
H 1.997594 -1.557096 0.576449
H 2.186538 -0.253005 1.816693
C -2.147721 -0.890784 -1.400908
H -2.013065 -1.975145 -1.365597
H -3.159481 -0.650797 -1.74716
H -1.412743 -0.457585 -2.086376
O -1.761158 1.079117 0.250681
C -3.019107 1.785904 0.122705
H -2.812013 2.823689 0.400297
H -3.416627 1.763413 -0.903162
H -3.790667 1.37864 0.798771
C 2.709557 0.433705 -0.234919
O 2.761465 1.642194 0.170501
O 3.163086 -0.127052 -1.271611
21
G: 25 x 25 i: 22 j: 5 E: 0.860576337448947
C -1.833742 -0.414578 -0.078244
H -2.674511 -0.954046 0.382605
H 0.269113 0.843201 0.444909
C -0.546638 -1.029942 0.517664
O -0.44614 -2.273289 0.624193
N 0.455209 -0.146636 0.603178
C 1.879188 -0.47244 0.81773
H 2.015344 -1.530991 0.592038
H 2.167862 -0.236728 1.848099
C -1.816361 -0.656845 -1.598094
H -1.610041 -1.719386 -1.756075
H -2.765004 -0.392267 -2.079189
H -1.003442 -0.066039 -2.031313
O -1.922942 0.946432 0.450349
C -3.173321 1.613927 0.148087
H -3.134969 2.575211 0.669399
H -3.310548 1.798207 -0.927639
H -4.043574 1.041246 0.512464
C 2.678228 0.486052 -0.195781
O 2.69557 1.691665 0.221134
O 3.145909 -0.050932 -1.23889
21
G: 25 x 25 i: 21 j: 5 E: 0.8964673532755114
C -1.793712 -0.419333 -0.230113
H -2.632815 -1.108431 -0.060551
H 0.258059 0.80582 0.496683
C -0.552439 -1.076511 0.413407
O -0.442509 -2.320464 0.476831
N 0.444674 -0.193309 0.575933
C 1.863641 -0.518628 0.819135
H 2.020316 -1.558769 0.530198
H 2.118134 -0.346698 1.870883
C -1.526696 -0.243052 -1.73567
H -1.236279 -1.214597 -2.147654
H -2.405182 0.126413 -2.277354
H -0.692876 0.454162 -1.858734
O -2.088479 0.752692 0.601366
C -3.334054 1.413611 0.261765
H -3.467786 2.203635 1.00728
H -3.3198 1.869796 -0.738905
H -4.193413 0.722977 0.31233
C 2.675096 0.512651 -0.108738
O 2.659893 1.690017 0.383078
O 3.177084 0.051057 -1.171828
21
G: 25 x 25 i: 20 j: 5 E: 0.9539416597890522
C -1.771386 -0.334719 -0.379571
H -2.564316 -1.088004 -0.485239
H 0.314905 0.769437 0.483538
C -0.564278 -1.077699 0.235429
O -0.493736 -2.324954 0.249218
N 0.463621 -0.2392 0.457055
C 1.85705 -0.624101 0.755615
H 2.016742 -1.629648 0.364018
H 2.045529 -0.575225 1.833965
C -1.392047 0.2621 -1.744552
H -1.002025 -0.536591 -2.383913
H -2.250423 0.724875 -2.245666
H -0.603946 1.005905 -1.602814
O -2.236874 0.548754 0.700547
C -3.517194 1.17398 0.42519
H -3.785209 1.723364 1.333277
H -3.479946 1.880588 -0.417085
H -4.302798 0.42843 0.212379
C 2.739728 0.484453 -0.000317
O 2.706917 1.600832 0.618234
O 3.305555 0.133768 -1.073325
21
G: 25 x 25 i: 19 j: 5 E: 1.0341971026700776
C -1.74365 -0.135224 -0.4881
H -2.444082 -0.847947 -0.945065
H 0.428109 0.734238 0.536769
C -0.557987 -1.004902 -0.010175
O -0.545221 -2.243098 -0.175399
N 0.506771 -0.265133 0.350204
C 1.86493 -0.77274 0.633168
H 1.992457 -1.707712 0.086064
H 2.004984 -0.912174 1.710871
C -1.315114 0.939336 -1.497153
H -0.760935 0.46903 -2.31545
H -2.179528 1.467696 -1.916656
H -0.657955 1.664039 -1.010795
O -2.405406 0.269745 0.765144
C -3.745449 0.787589 0.557001
H -4.159139 0.965318 1.554958
H -3.760604 1.733848 -0.004659
H -4.389633 0.065386 0.026039
C 2.829936 0.395844 0.105095
O 2.81913 1.394421 0.901979
O 3.429364 0.19953 -0.98829
21
G: 25 x 25 i: 18 j: 5 E: 1.0932018325511308
C -1.700641 0.089564 -0.470082
H -2.251946 -0.446443 -1.254635
H 0.565903 0.73496 0.627203
C -0.533926 -0.868507 -0.125266
O -0.578589 -2.071234 -0.461985
N 0.55294 -0.251144 0.371809
C 1.883296 -0.867222 0.56561
H 1.928207 -1.761873 -0.056354
H 2.043294 -1.098366 1.62414
C -1.258949 1.477282 -0.951351
H -0.479825 1.380564 -1.712744
H -2.100375 2.040942 -1.370962
H -0.855186 2.045266 -0.108506
O -2.588717 0.005647 0.706353
C -3.950184 0.410207 0.405287
H -4.529264 0.228087 1.316542
H -4.035872 1.475488 0.14053
H -4.385106 -0.181351 -0.418649
C 2.904981 0.277807 0.096762
O 2.982586 1.206625 0.971584
O 3.454987 0.137205 -1.030326
21
G: 25 x 25 i: 17 j: 5 E: 1.1195019195183704
C -1.670087 0.21533 -0.397857
H -2.086853 -0.180499 -1.334421
H 0.677005 0.79084 0.61716
C -0.524648 -0.775634 -0.064659
O -0.631523 -1.979486 -0.380976
N 0.597354 -0.202622 0.40739
C 1.904896 -0.876045 0.568244
H 1.880049 -1.793297 -0.021024
H 2.09845 -1.075885 1.627341
C -1.260275 1.683441 -0.549551
H -0.395039 1.770468 -1.212884
H -2.083311 2.282601 -0.955569
H -1.000681 2.088605 0.433298
O -2.707322 -0.104801 0.604576
C -4.043324 0.224782 0.143162
H -4.72799 -0.116081 0.926746
H -4.194283 1.305126 -0.010085
H -4.294579 -0.290653 -0.79944
C 2.95538 0.203343 0.015437
O 3.112152 1.156607 0.85323
O 3.448455 0.000909 -1.128269
21
G: 25 x 25 i: 16 j: 5 E: 1.1361880295753508
C -1.649309 0.2957 -0.316332
H -1.938315 0.005508 -1.337104
H 0.763598 0.852196 0.575691
C -0.523756 -0.709645 0.049687
O -0.682185 -1.925759 -0.183123
N 0.637808 -0.147972 0.432056
C 1.927688 -0.85773 0.579421
H 1.848379 -1.805339 0.045501
H 2.15859 -1.004584 1.639743
C -1.296305 1.783344 -0.248631
H -0.41268 1.996514 -0.857449
H -2.130118 2.395267 -0.611125
H -1.098248 2.06022 0.791394
O -2.788795 -0.160131 0.505007
C -4.067313 0.104406 -0.126439
H -4.827979 -0.317898 0.538431
H -4.273169 1.179296 -0.256991
H -4.148741 -0.379221 -1.114484
C 2.987775 0.152655 -0.075416
O 3.20922 1.144791 0.700893
O 3.426928 -0.128718 -1.224244
21
G: 25 x 25 i: 15 j: 5 E: 1.1485379219393508
C -1.633566 0.344242 -0.237704
H -1.787729 0.148042 -1.310268
H 0.822044 0.909955 0.516546
C -0.52289 -0.659246 0.183501
O -0.711398 -1.885873 0.062309
N 0.669057 -0.094571 0.454956
C 1.95014 -0.820474 0.60059
H 1.831924 -1.801137 0.138256
H 2.222238 -0.898775 1.658538
C -1.358776 1.830945 0.004826
H -0.471503 2.156762 -0.546531
H -2.212355 2.433438 -0.326027
H -1.209249 2.002117 1.075012
O -2.843622 -0.214002 0.392453
C -4.037706 0.023873 -0.393461
H -4.857673 -0.464681 0.143193
H -4.279817 1.093965 -0.504227
H -3.962127 -0.412702 -1.403587
C 3.000492 0.119233 -0.165234
O 3.271896 1.157877 0.530506
O 3.387459 -0.250055 -1.307856
21
G: 25 x 25 i: 14 j: 5 E: 1.1552911919352482
C -1.622421 0.370257 -0.168574
H -1.632476 0.27038 -1.266286
H 0.852792 0.968603 0.430674
C -0.51812 -0.611625 0.32169
O -0.71495 -1.841304 0.336746
N 0.690439 -0.035062 0.477534
C 1.97221 -0.756493 0.640449
H 1.830937 -1.775009 0.277077
H 2.286097 -0.738566 1.689686
C -1.456071 1.841196 0.233066
H -0.571997 2.28107 -0.238564
H -2.331945 2.418097 -0.084749
H -1.363698 1.913171 1.320359
O -2.867443 -0.286439 0.256287
C -3.965064 -0.037504 -0.655411
H -4.81795 -0.603624 -0.26669
H -4.248945 1.026684 -0.715466
H -3.74149 -0.385889 -1.67797
C 2.997245 0.096237 -0.25069
O 3.303068 1.193011 0.332559
O 3.336691 -0.383003 -1.367341
21
G: 25 x 25 i: 13 j: 5 E: 1.1517756971807103
C -1.616571 0.38194 -0.116553
H -1.478557 0.385561 -1.210302
H 0.857466 1.03504 0.285904
C -0.506028 -0.545805 0.46011
O -0.693813 -1.760332 0.653044
N 0.70355 0.051878 0.500463
C 1.996336 -0.63599 0.717737
H 1.848111 -1.697395 0.516209
H 2.350542 -0.460963 1.739429
C -1.610036 1.817822 0.431552
H -0.721963 2.36829 0.107981
H -2.490628 2.361051 0.069984
H -1.636793 1.786985 1.523871
O -2.848797 -0.384585 0.095085
C -3.849161 -0.117859 -0.918003
H -4.696586 -0.771951 -0.687633
H -4.202372 0.927133 -0.917299
H -3.48423 -0.350143 -1.93296
C 2.98216 0.07181 -0.330444
O 3.305308 1.24371 0.067929
O 3.281047 -0.571076 -1.374161
21
G: 25 x 25 i: 12 j: 5 E: 1.1271156138773222
C -1.618104 0.380698 -0.093714
H -1.349724 0.477359 -1.157849
H 0.833995 1.084433 0.051914
C -0.489672 -0.442413 0.592836
O -0.658801 -1.596081 1.023273
N 0.707282 0.178768 0.50231
C 2.020654 -0.426456 0.82219
H 1.885695 -1.507371 0.871214
H 2.403178 -0.019348 1.764484
C -1.817307 1.764961 0.548969
H -0.918401 2.380879 0.468393
H -2.643854 2.298371 0.064994
H -2.060067 1.62373 1.6057
O -2.778229 -0.511035 -0.069324
C -3.701557 -0.249913 -1.155856
H -4.493652 -1.000784 -1.066878
H -4.159782 0.751881 -1.106209
H -3.221001 -0.353288 -2.143653
C 2.961702 0.03287 -0.392312
O 3.276906 1.267764 -0.2832
O 3.239918 -0.828863 -1.270869
21
G: 25 x 25 i: 11 j: 5 E: 1.1026685141732742
C -1.637058 0.369354 -0.105305
H -1.295868 0.503421 -1.143702
H 0.802748 1.039697 -0.224558
C -0.49311 -0.325289 0.683676
O -0.659057 -1.345695 1.373145
N 0.699678 0.251054 0.414546
C 2.023518 -0.235508 0.864651
H 1.918559 -1.287395 1.132441
H 2.380462 0.365557 1.708419
C -1.993664 1.724385 0.534018
H -1.116087 2.37468 0.575092
H -2.786719 2.233774 -0.025646
H -2.345083 1.533657 1.552348
O -2.697522 -0.633751 -0.175271
C -3.606793 -0.403413 -1.281406
H -4.313159 -1.240155 -1.270678
H -4.173935 0.537366 -1.189097
H -3.084346 -0.389808 -2.2533
C 2.973538 -0.00744 -0.406972
O 3.253833 1.232179 -0.550341
O 3.292384 -1.022821 -1.084422
21
G: 25 x 25 i: 10 j: 5 E: 1.1020924216973071
C -1.661802 0.153617 -0.35509
H -1.286959 -0.487593 -1.167249
H 0.782627 0.281786 -1.011408
C -0.498892 0.432304 0.630781
O -0.667794 0.556333 1.856466
N 0.691531 0.438363 -0.007262
C 2.018556 0.616465 0.623536
H 1.937571 0.308957 1.666639
H 2.344889 1.658727 0.532273
C -2.191425 1.488679 -0.908869
H -1.378859 2.034033 -1.398239
H -3.006764 1.339039 -1.625683
H -2.559575 2.07469 -0.061444
O -2.589107 -0.690722 0.397432
C -3.496763 -1.4231 -0.464995
H -4.092921 -2.060437 0.196584
H -4.178767 -0.769418 -1.032996
H -2.960046 -2.062041 -1.187209
C 2.986743 -0.333494 -0.232095
O 3.237665 0.182417 -1.375038
O 3.346684 -1.422167 0.293635
21
G: 25 x 25 i: 9 j: 5 E: 1.1024334349203855
C -1.692685 0.079445 -0.399606
H -1.32719 -0.646275 -1.140297
H 0.770084 -0.10591 -1.072678
C -0.501889 0.675078 0.386025
O -0.671545 1.273673 1.465197
N 0.68254 0.433484 -0.211244
C 2.01188 0.833208 0.302198
H 1.929081 0.962735 1.381653
H 2.346108 1.752047 -0.192627
C -2.464667 1.229961 -1.065453
H -1.815229 1.755179 -1.773456
H -3.357366 0.873855 -1.591263
H -2.756851 1.914992 -0.26433
O -2.417653 -0.721236 0.595087
C -3.281059 -1.71355 -0.016374
H -3.729267 -2.274185 0.810813
H -4.090008 -1.272031 -0.621585
H -2.720763 -2.414058 -0.659033
C 2.972895 -0.384136 -0.108983
O 3.227395 -0.359714 -1.361816
O 3.32515 -1.18032 0.803367
21
G: 25 x 25 i: 8 j: 5 E: 1.0824574398011464
C -1.729285 0.088853 -0.413875
H -1.393414 -0.563828 -1.231742
H 0.745176 -0.197635 -1.080601
C -0.521165 0.785161 0.252285
O -0.685513 1.531819 1.238601
N 0.660912 0.454482 -0.300706
C 1.992275 0.900866 0.166199
H 1.904215 1.177134 1.217193
H 2.3431 1.738713 -0.446494
C -2.714679 1.161924 -0.894453
H -2.265018 1.763754 -1.691605
H -3.648557 0.721873 -1.259905
H -2.91288 1.798992 -0.028145
O -2.222298 -0.828351 0.629741
C -3.014511 -1.912764 0.081168
H -3.297252 -2.540905 0.932644
H -3.932881 -1.567727 -0.42263
H -2.442462 -2.523859 -0.63756
C 2.939514 -0.374055 -0.069032
O 3.203145 -0.521091 -1.311336
O 3.274754 -1.043351 0.945498
21
G: 25 x 25 i: 7 j: 5 E: 1.0584107557988318
C -1.769568 0.092738 -0.411252
H -1.475966 -0.487032 -1.297648
H 0.702839 -0.258037 -1.069051
C -0.556464 0.880234 0.137581
O -0.70899 1.73647 1.034631
N 0.623996 0.474227 -0.363167
C 1.957859 0.952421 0.062092
H 1.869552 1.335801 1.07891
H 2.319799 1.719388 -0.631541
C -2.916796 1.063112 -0.702769
H -2.663936 1.714871 -1.546325
H -3.847749 0.532243 -0.926778
H -3.033082 1.672435 0.197307
O -2.017399 -0.919332 0.63616
C -2.731685 -2.075158 0.127273
H -2.831959 -2.764534 0.972332
H -3.738701 -1.830605 -0.250682
H -2.178748 -2.581704 -0.681788
C 2.894304 -0.349043 -0.037506
O 3.161334 -0.624127 -1.256982
O 3.220565 -0.912791 1.041806
21
G: 25 x 25 i: 6 j: 5 E: 1.0432644842585432
C -1.810725 0.085585 -0.391078
H -1.585622 -0.424395 -1.339215
H 0.649113 -0.332543 -1.028646
C -0.597629 0.952623 0.030434
O -0.736034 1.910629 0.821882
N 0.57917 0.4788 -0.414015
C 1.916944 0.992367 -0.047067
H 1.834285 1.487079 0.921053
H 2.281714 1.675364 -0.822246
C -3.066215 0.951428 -0.483104
H -3.000866 1.629265 -1.341392
H -3.969688 0.340693 -0.577841
H -3.099069 1.547357 0.432287
O -1.813213 -0.995573 0.616436
C -2.478988 -2.19325 0.139176
H -2.388432 -2.930149 0.944109
H -3.548823 -2.036318 -0.079263
H -2.001871 -2.597632 -0.76952
C 2.848015 -0.316549 -0.002994
O 3.111424 -0.726988 -1.184517
O 3.176153 -0.756012 1.13202
21
G: 25 x 25 i: 5 j: 5 E: 1.0358616238027025
C -1.847673 0.079113 -0.355722
H -1.737444 -0.355852 -1.361231
H 0.584923 -0.434903 -0.952809
C -0.630697 1.001158 -0.076419
O -0.750809 2.055063 0.586063
N 0.534883 0.466879 -0.477999
C 1.882154 1.009538 -0.19745
H 1.810521 1.648998 0.682912
H 2.252085 1.559648 -1.069831
C -3.152648 0.858106 -0.210634
H -3.258618 1.572709 -1.03395
H -4.019222 0.189406 -0.20461
H -3.09145 1.419883 0.724
O -1.614543 -1.06003 0.553321
C -2.294749 -2.266739 0.120534
H -2.003015 -3.047711 0.830206
H -3.39361 -2.171816 0.127836
H -1.986497 -2.572889 -0.893676
C 2.800195 -0.286937 0.046284
O 3.055219 -0.878856 -1.057324
O 3.129965 -0.546309 1.235139
21
G: 25 x 25 i: 4 j: 5 E: 1.0110655923617742
C -1.874523 0.097792 -0.307556
H -1.949632 -0.242062 -1.353354
H 0.504306 -0.57639 -0.821235
C -0.633927 1.022894 -0.187946
O -0.72213 2.165946 0.310848
N 0.499484 0.414647 -0.577072
C 1.868291 0.955988 -0.421833
H 1.82056 1.785036 0.285152
H 2.25121 1.274602 -1.397633
C -3.137934 0.83104 0.137101
H -3.32207 1.682407 -0.524384
H -4.009583 0.168363 0.125667
H -2.968294 1.2183 1.143687
O -1.457724 -1.11055 0.425246
C -2.239109 -2.283354 0.07483
H -1.777583 -3.121035 0.60716
H -3.295825 -2.206004 0.378662
H -2.210394 -2.488667 -1.009086
C 2.750404 -0.273142 0.120667
O 2.986336 -1.114984 -0.810862
O 3.076232 -0.253461 1.338929
21
G: 25 x 25 i: 3 j: 5 E: 0.9435340352829371
C -1.891666 0.146968 -0.25486
H -2.152807 -0.07776 -1.302661
H 0.434209 -0.695244 -0.656218
C -0.610098 1.026189 -0.275943
O -0.654102 2.237155 0.035452
N 0.481794 0.323795 -0.620597
C 1.872172 0.832294 -0.591934
H 1.864546 1.790729 -0.071385
H 2.245814 0.928567 -1.617311
C -3.033691 0.869598 0.460269
H -3.068047 1.902927 0.108924
H -3.998396 0.377494 0.297177
H -2.804894 0.882744 1.529817
O -1.415101 -1.140614 0.273618
C -2.336957 -2.234053 0.017648
H -1.830935 -3.140663 0.363368
H -3.288869 -2.124767 0.560756
H -2.565423 -2.33741 -1.05708
C 2.727903 -0.286346 0.181955
O 2.92365 -1.310466 -0.555107
O 3.073837 -0.02371 1.366784
21
G: 25 x 25 i: 2 j: 5 E: 0.8726190403576766
C -1.903453 0.192112 -0.191042
H -2.32049 0.071752 -1.205943
H 0.387329 -0.760877 -0.508905
C -0.595721 1.020773 -0.348592
O -0.613669 2.265379 -0.208726
N 0.473129 0.251823 -0.597193
C 1.872673 0.726645 -0.670375
H 1.900861 1.74279 -0.27465
H 2.217778 0.685932 -1.709545
C -2.893685 0.919063 0.72172
H -2.851303 1.982563 0.475446
H -3.91531 0.538134 0.618616
H -2.558012 0.788691 1.755325
O -1.448137 -1.157181 0.165707
C -2.462466 -2.173459 -0.050966
H -1.980022 -3.13136 0.165117
H -3.331864 -2.050229 0.61332
H -2.824599 -2.178872 -1.093407
C 2.729289 -0.30637 0.213905
O 2.883603 -1.419045 -0.392088
O 3.113692 0.095365 1.347242
21
G: 25 x 25 i: 1 j: 5 E: 0.831035481985964
C -1.902822 0.240673 -0.127368
H -2.466313 0.238096 -1.076848
H 0.356232 -0.801138 -0.409395
C -0.582084 1.007609 -0.420007
O -0.580375 2.260974 -0.419336
N 0.472057 0.199115 -0.570656
C 1.876807 0.636146 -0.716951
H 1.935123 1.681334 -0.409693
H 2.197073 0.501405 -1.756284
C -2.701079 0.964185 0.961817
H -2.640063 2.034128 0.748556
H -3.746539 0.639298 1.001153
H -2.221533 0.766652 1.925649
O -1.520344 -1.160314 0.06353
C -2.626633 -2.083269 -0.106501
H -2.199065 -3.086344 -0.018399
H -3.403921 -1.954823 0.662422
H -3.102321 -1.978999 -1.096815
C 2.732994 -0.33762 0.232808
O 2.850085 -1.500705 -0.278836
O 3.151113 0.150075 1.319825
21
G: 25 x 25 i: 0 j: 5 E: 0.8209821770742565
C -1.898562 0.269646 -0.175468
H -2.515245 0.425975 -1.076789
H 0.348834 -0.819585 -0.45433
C -0.554549 1.006129 -0.418463
O -0.55031 2.258824 -0.461695
N 0.488681 0.184596 -0.559716
C 1.899881 0.60005 -0.697785
H 1.876641 1.623535 -0.320685
H 2.309848 0.550227 -1.712961
C -2.595022 0.907733 1.033351
H -2.528641 1.990867 0.90384
H -3.642526 0.59997 1.124041
H -2.050579 0.619203 1.937618
O -1.637801 -1.156416 0.007037
C -2.822045 -1.982068 -0.120678
H -2.479497 -3.016969 -0.039612
H -3.560136 -1.786425 0.670899
H -3.31906 -1.84194 -1.095024
C 2.72315 -0.387055 0.266713
O 3.086005 -1.441285 -0.358075
O 3.054916 0.073423 1.394607
21
G: 25 x 25 i: 0 j: 6 E: 0.9021149153795704
C -1.882829 0.265065 -0.266553
H -2.435089 0.462003 -1.20108
H 0.344003 -0.801305 -0.557619
C -0.52333 1.010456 -0.344124
O -0.513606 2.262845 -0.32033
N 0.516387 0.201594 -0.579898
C 1.925979 0.644551 -0.649315
H 1.958201 1.661127 -0.253835
H 2.271029 0.604283 -1.688125
C -2.662794 0.859907 0.913011
H -2.591645 1.946942 0.826024
H -3.713218 0.548183 0.920774
H -2.179982 0.541581 1.842037
O -1.692991 -1.150203 0.052847
C -2.889111 -1.949088 -0.12621
H -2.594782 -2.984039 0.071551
H -3.692772 -1.666176 0.570355
H -3.283407 -1.875544 -1.154221
C 2.810019 -0.373495 0.236721
O 3.239239 -1.368583 -0.429519
O 2.921777 -0.068134 1.459783
21
G: 25 x 25 i: 1 j: 6 E: 0.9143031992607575
C -1.872103 0.219569 -0.309074
H -2.273515 0.284952 -1.33537
H 0.383377 -0.78242 -0.572222
C -0.524453 0.994343 -0.263069
O -0.524676 2.242246 -0.156711
N 0.529743 0.22502 -0.565727
C 1.931178 0.700217 -0.60205
H 1.943458 1.688268 -0.1389
H 2.274508 0.73775 -1.641553
C -2.842706 0.896767 0.663208
H -2.750169 1.974922 0.511833
H -3.879199 0.575839 0.512774
H -2.52971 0.654048 1.683428
O -1.694895 -1.144773 0.196832
C -2.821806 -2.012406 -0.090665
H -2.536882 -3.006636 0.265995
H -3.739369 -1.694442 0.427328
H -3.03713 -2.063864 -1.171654
C 2.840433 -0.355193 0.211296
O 3.291474 -1.292001 -0.521983
O 2.949743 -0.13089 1.451932
21
G: 25 x 25 i: 2 j: 6 E: 0.9593913950393471
C -1.850166 0.184899 -0.355386
H -2.095527 0.141895 -1.430594
H 0.431355 -0.750083 -0.636886
C -0.520382 0.973547 -0.177728
O -0.528754 2.203375 0.054281
N 0.548085 0.259049 -0.56642
C 1.942615 0.759044 -0.540467
H 1.932592 1.69927 0.013246
H 2.293862 0.899558 -1.56834
C -2.958059 0.915136 0.406518
H -2.838886 1.984699 0.218686
H -3.958742 0.580333 0.113583
H -2.809575 0.732103 1.475288
O -1.724654 -1.123321 0.301126
C -2.805319 -2.033232 -0.036322
H -2.557108 -2.9864 0.440125
H -3.780132 -1.68655 0.339474
H -2.891043 -2.185279 -1.12586
C 2.86544 -0.350648 0.179772
O 3.341813 -1.205344 -0.633724
O 2.960576 -0.241632 1.436804
21
G: 25 x 25 i: 3 j: 6 E: 1.0363919467108644
C -1.819487 0.153322 -0.399631
H -1.915474 0.007712 -1.488637
H 0.495147 -0.693641 -0.74334
C -0.515257 0.942104 -0.094465
O -0.544957 2.129845 0.294217
N 0.575212 0.305372 -0.561548
C 1.959745 0.8229 -0.441898
H 1.920828 1.680385 0.231649
H 2.324455 1.105398 -1.435143
C -3.01337 0.93834 0.144214
H -2.907233 1.984097 -0.151608
H -3.967948 0.535376 -0.210164
H -2.977282 0.889653 1.236336
O -1.79105 -1.087983 0.390898
C -2.834908 -2.025385 0.011702
H -2.649657 -2.933354 0.593824
H -3.84502 -1.652005 0.241075
H -2.796453 -2.272442 -1.063103
C 2.894109 -0.355298 0.141795
O 3.401598 -1.084138 -0.769807
O 2.967805 -0.413308 1.403397
21
G: 25 x 25 i: 4 j: 6 E: 1.1136408567963372
C -1.787867 0.115414 -0.429536
H -1.723389 -0.156028 -1.495845
H 0.579176 -0.593924 -0.846189
C -0.521379 0.901188 0.004089
O -0.603193 2.015702 0.562005
N 0.610795 0.355724 -0.481028
C 1.97302 0.886186 -0.231884
H 1.901098 1.566571 0.618068
H 2.331164 1.40087 -1.129788
C -3.017574 0.980753 -0.16386
H -2.977249 1.878296 -0.787345
H -3.943753 0.435434 -0.372899
H -2.990815 1.296073 0.881009
O -1.931918 -1.025689 0.4916
C -2.888689 -2.01451 0.025807
H -2.832323 -2.844457 0.737184
H -3.923243 -1.636077 0.000135
H -2.637538 -2.388294 -0.981698
C 2.946313 -0.362316 0.079523
O 3.482075 -0.846324 -0.968662
O 3.017832 -0.704791 1.295023
21
G: 25 x 25 i: 5 j: 6 E: 1.1467710587457987
C -1.753286 0.081047 -0.445586
H -1.546288 -0.321607 -1.449574
H 0.667685 -0.488335 -0.924141
C -0.515688 0.832498 0.114824
O -0.640161 1.862316 0.811162
N 0.651892 0.355086 -0.356285
C 1.988415 0.875023 0.019107
H 1.896845 1.320977 1.010678
H 2.316205 1.611925 -0.721856
C -2.935113 1.047234 -0.473008
H -2.793991 1.791932 -1.263597
H -3.87923 0.52047 -0.643612
H -2.950972 1.567167 0.487236
O -2.145967 -0.925367 0.55944
C -3.039137 -1.934797 0.020797
H -3.206478 -2.651582 0.831167
H -4.011999 -1.526646 -0.299895
H -2.59298 -2.464705 -0.838084
C 3.011681 -0.372201 0.012442
O 3.556056 -0.559515 -1.122627
O 3.104664 -1.004686 1.103802
21
G: 25 x 25 i: 6 j: 6 E: 1.1567948937135952
C -1.720118 0.048714 -0.450636
H -1.449984 -0.455537 -1.3905
H 0.727952 -0.408109 -0.994116
C -0.495757 0.741149 0.200378
O -0.644048 1.682436 1.008102
N 0.685781 0.3408 -0.307906
C 2.008227 0.840098 0.137397
H 1.903028 1.156287 1.176164
H 2.323165 1.6702 -0.503886
C -2.796794 1.109596 -0.674062
H -2.504915 1.784685 -1.48604
H -3.763536 0.65678 -0.915843
H -2.862613 1.684611 0.252769
O -2.330185 -0.819298 0.577005
C -3.22376 -1.809944 0.005884
H -3.580876 -2.414164 0.846261
H -4.093371 -1.364912 -0.506091
H -2.706521 -2.468702 -0.712146
C 3.053304 -0.378517 -0.0203
O 3.603081 -0.411826 -1.167744
O 3.153226 -1.142976 0.982237
21
G: 25 x 25 i: 7 j: 6 E: 1.1723310773577396
C -1.691548 0.004824 -0.441519
H -1.394567 -0.588736 -1.318164
H 0.76971 -0.357731 -1.027361
C -0.477204 0.626521 0.288478
O -0.641135 1.478651 1.185899
N 0.710505 0.314805 -0.267492
C 2.022761 0.803928 0.217448
H 1.912778 1.026571 1.279602
H 2.317488 1.692852 -0.350395
C -2.62524 1.15467 -0.827576
H -2.174685 1.767205 -1.616254
H -3.597788 0.787453 -1.170888
H -2.744254 1.762823 0.07286
O -2.494914 -0.712678 0.568606
C -3.43295 -1.64321 -0.031223
H -3.945838 -2.134205 0.802441
H -4.185774 -1.149346 -0.668121
H -2.924706 -2.411276 -0.638489
C 3.091007 -0.37481 -0.046963
O 3.636537 -0.297386 -1.194396
O 3.208655 -1.222436 0.884309
21
G: 25 x 25 i: 8 j: 6 E: 1.1958514113121055
C -1.669679 -0.045503 -0.418015
H -1.367157 -0.714151 -1.23657
H 0.791251 -0.302078 -1.045021
C -0.46552 0.493573 0.38713
O -0.637078 1.23841 1.372289
N 0.7215 0.288468 -0.220655
C 2.026189 0.767428 0.294436
H 1.919585 0.895127 1.372426
H 2.293981 1.708761 -0.197294
C -2.427635 1.180876 -0.942392
H -1.820802 1.719299 -1.678374
H -3.383467 0.903142 -1.398966
H -2.598199 1.823815 -0.074602
O -2.637293 -0.609179 0.539802
C -3.630425 -1.446781 -0.106065
H -4.267681 -1.832502 0.696658
H -4.261492 -0.896842 -0.823913
H -3.173761 -2.298541 -0.638264
C 3.118029 -0.358272 -0.078013
O 3.649997 -0.170344 -1.219181
O 3.263309 -1.28054 0.775343
21
G: 25 x 25 i: 9 j: 6 E: 1.2151109847818589
C -1.654968 -0.029666 -0.392634
H -1.356671 -0.630042 -1.264602
H 0.789325 -0.035511 -1.061488
C -0.466541 0.252951 0.555029
O -0.638075 0.655627 1.720245
N 0.716457 0.27875 -0.097538
C 2.015866 0.62788 0.524623
H 1.925861 0.424127 1.592486
H 2.246277 1.681839 0.334877
C -2.195789 1.342115 -0.827053
H -1.430407 1.884032 -1.392246
H -3.099263 1.250561 -1.439757
H -2.425911 1.89176 0.090158
O -2.763114 -0.573294 0.401652
C -3.802298 -1.158507 -0.424355
H -4.544032 -1.567562 0.269689
H -4.300223 -0.42556 -1.080299
H -3.419067 -1.976177 -1.058533
C 3.131638 -0.298327 -0.176521
O 3.63585 0.237428 -1.215646
O 3.319273 -1.428186 0.360992
21
G: 25 x 25 i: 10 j: 6 E: 1.2144913812808227
C -1.645983 0.304359 -0.217181
H -1.368812 0.764229 -1.178253
H 0.769523 0.978405 -0.308886
C -0.474948 -0.537715 0.349428
O -0.642251 -1.573473 1.015146
N 0.702159 0.120463 0.232604
C 2.002754 -0.37256 0.745172
H 1.929298 -1.458914 0.81372
H 2.213913 0.078002 1.721119
C -1.966368 1.393801 0.822172
H -1.081559 2.014563 0.992557
H -2.7978 2.032031 0.502303
H -2.236863 0.889685 1.754724
O -2.854167 -0.518725 -0.237334
C -3.915972 0.072916 -1.029329
H -4.736365 -0.652317 -1.022713
H -4.28499 1.026394 -0.617543
H -3.606089 0.251396 -2.073327
C 3.123144 0.091665 -0.313604
O 3.60499 1.240784 -0.051199
O 3.335037 -0.708774 -1.270597
21
G: 25 x 25 i: 11 j: 6 E: 1.214580553029009
C -1.637394 0.281919 -0.248579
H -1.411788 0.618295 -1.272769
H 0.759325 1.017871 -0.140668
C -0.471334 -0.588873 0.29412
O -0.633102 -1.706138 0.811156
N 0.691723 0.106602 0.30563
C 1.998207 -0.437755 0.747277
H 1.91214 -1.525099 0.729486
H 2.235728 -0.067867 1.750452
C -1.818574 1.495267 0.682891
H -0.901898 2.088957 0.729479
H -2.640781 2.137471 0.346531
H -2.04999 1.1182 1.683387
O -2.890996 -0.44912 -0.07963
C -3.96351 0.092884 -0.892135
H -4.824956 -0.563555 -0.730944
H -4.245732 1.120308 -0.609526
H -3.711323 0.093765 -1.966337
C 3.09793 0.1003 -0.297884
O 3.597496 1.220847 0.04377
O 3.277261 -0.621465 -1.321876
21
G: 25 x 25 i: 12 j: 6 E: 1.239827069141029
C -1.631554 0.26937 -0.281442
H -1.487772 0.466671 -1.355717
H 0.758185 1.041003 0.04065
C -0.466163 -0.617699 0.243561
O -0.625859 -1.791977 0.614981
N 0.683415 0.086582 0.381087
C 1.991648 -0.507141 0.74911
H 1.889202 -1.588116 0.6461
H 2.254487 -0.219858 1.772519
C -1.701053 1.594842 0.49867
H -0.80515 2.202907 0.350358
H -2.570205 2.181943 0.179561
H -1.803426 1.36422 1.562493
O -2.898377 -0.361475 0.090203
C -3.999813 0.069115 -0.748639
H -4.874659 -0.497433 -0.413075
H -4.221394 1.145405 -0.656448
H -3.82009 -0.149518 -1.814895
C 3.073114 0.102169 -0.275746
O 3.593912 1.186535 0.142802
O 3.217805 -0.535238 -1.359516
21
G: 25 x 25 i: 13 j: 6 E: 1.2659925141178974
C -1.642704 0.253144 -0.322051
H -1.626947 0.309494 -1.422734
H 0.743877 1.004435 0.239222
C -0.477738 -0.669718 0.143473
O -0.644123 -1.886713 0.334393
N 0.668571 0.00455 0.393983
C 1.970809 -0.640211 0.686761
H 1.873052 -1.691472 0.413197
H 2.216372 -0.517951 1.746788
C -1.569708 1.669611 0.271467
H -0.739379 2.244092 -0.150102
H -2.495473 2.213716 0.05207
H -1.447809 1.600843 1.355499
O -2.885357 -0.258125 0.264984
C -4.054112 0.097043 -0.514117
H -4.907409 -0.369152 -0.010714
H -4.228746 1.185022 -0.565721
H -3.995891 -0.28537 -1.547147
C 3.064632 0.126596 -0.211632
O 3.573669 1.131897 0.382192
O 3.228472 -0.330097 -1.380524
21
G: 25 x 25 i: 14 j: 6 E: 1.2706262067949865
C -1.662132 0.225905 -0.3752
H -1.789697 0.14558 -1.466871
H 0.711389 0.948817 0.373125
C -0.486694 -0.710792 0.029721
O -0.648854 -1.944055 0.071914
N 0.645996 -0.063217 0.381915
C 1.945023 -0.729959 0.633243
H 1.865515 -1.740666 0.231017
H 2.158927 -0.736389 1.706996
C -1.482443 1.699505 0.012166
H -0.684921 2.168581 -0.57283
H -2.409554 2.251339 -0.179763
H -1.24659 1.76977 1.077768
O -2.836082 -0.166175 0.418311
C -4.084244 0.125979 -0.256545
H -4.878848 -0.239716 0.402056
H -4.242493 1.203498 -0.431941
H -4.160078 -0.389827 -1.228464
C 3.054603 0.150676 -0.132013
O 3.534203 1.079462 0.595792
O 3.256944 -0.157525 -1.342609
21
G: 25 x 25 i: 15 j: 6 E: 1.2635325494375138
C -1.685981 0.179964 -0.434416
H -1.952252 -0.03306 -1.481232
H 0.660384 0.894561 0.449692
C -0.489661 -0.748113 -0.081142
O -0.630256 -1.984531 -0.147799
N 0.616426 -0.1151 0.363593
C 1.918479 -0.779123 0.604053
H 1.869608 -1.755374 0.12006
H 2.098279 -0.86804 1.680279
C -1.440293 1.681719 -0.262348
H -0.652199 2.02681 -0.938957
H -2.355298 2.24214 -0.485256
H -1.155114 1.886783 0.774015
O -2.757141 -0.086274 0.542441
C -4.077001 0.167726 7.2e-05
H -4.786824 -0.096754 0.790723
H -4.237661 1.223071 -0.276676
H -4.285155 -0.451382 -0.888468
C 3.034335 0.179047 -0.05159
O 3.472366 1.053875 0.763899
O 3.280279 -0.026867 -1.275679
21
G: 25 x 25 i: 16 j: 6 E: 1.2489774727018812
C -1.711088 0.099794 -0.488103
H -2.101398 -0.252073 -1.454113
H 0.585934 0.84153 0.500595
C -0.487115 -0.800485 -0.167468
O -0.584134 -2.036298 -0.307883
N 0.579488 -0.162833 0.357083
C 1.89496 -0.797433 0.602604
H 1.887836 -1.751978 0.074987
H 2.050518 -0.92817 1.678224
C -1.427047 1.602244 -0.55828
H -0.646125 1.810769 -1.295802
H -2.331972 2.152993 -0.839035
H -1.107846 1.956671 0.427015
O -2.658025 -0.013367 0.638985
C -4.02622 0.259215 0.241971
H -4.639651 0.096744 1.134286
H -4.179405 1.293882 -0.105743
H -4.368665 -0.421321 -0.555504
C 2.995643 0.222708 0.018073
O 3.385563 1.073689 0.8816
O 3.276541 0.079041 -1.20736
21
G: 25 x 25 i: 17 j: 6 E: 1.2278989806345635
C -1.733896 -0.029209 -0.515999
H -2.232689 -0.537985 -1.352494
H 0.488688 0.787292 0.544169
C -0.481876 -0.885351 -0.192149
O -0.517252 -2.12186 -0.361006
N 0.53734 -0.21337 0.381031
C 1.879579 -0.785094 0.634417
H 1.921651 -1.736108 0.102271
H 2.033997 -0.912272 1.710488
C -1.426492 1.42401 -0.89248
H -0.651802 1.459863 -1.663903
H -2.323276 1.934004 -1.262309
H -1.077562 1.96123 -0.004617
O -2.544391 0.082345 0.713727
C -3.924663 0.435591 0.436192
H -4.442887 0.416223 1.400558
H -4.034464 1.440108 -0.00233
H -4.407738 -0.286852 -0.243409
C 2.932301 0.29033 0.05997
O 3.27442 1.15686 0.927934
O 3.224097 0.165957 -1.165074
21
G: 25 x 25 i: 18 j: 6 E: 1.011649086338366
C -1.517958 -0.17721 -0.448808
H -2.019419 -0.642264 -1.309404
H 0.361852 0.297923 1.184813
C -0.371093 -1.144601 -0.072416
O -0.312839 -2.28411 -0.572142
N 0.532045 -0.638178 0.819943
C 1.987689 -0.885053 0.600051
H 2.062351 -1.717786 -0.098128
H 2.489325 -1.088627 1.549366
C -0.933164 1.183652 -0.861683
H 0.034078 1.033458 -1.372584
H -1.622956 1.741531 -1.505427
H -0.74736 1.781722 0.038925
O -2.395565 0.048608 0.717405
C -3.554161 0.851202 0.372969
H -4.168083 0.908108 1.27867
H -3.287894 1.871418 0.058129
H -4.15126 0.392127 -0.43495
C 2.470306 0.499407 -0.029169
O 2.846769 1.360349 0.821126
O 2.216052 0.61581 -1.278224
21
G: 25 x 25 i: 19 j: 6 E: 0.929675679144566
C -1.537114 -0.315861 -0.446461
H -2.141905 -0.914383 -1.141248
H 0.209782 0.343865 1.202548
C -0.349024 -1.195993 -0.015502
O -0.191047 -2.341552 -0.477039
N 0.473059 -0.590585 0.892391
C 1.948119 -0.760445 0.756758
H 2.104304 -1.666387 0.172793
H 2.415808 -0.810613 1.743343
C -0.975936 0.936921 -1.151912
H 0.007601 0.717039 -1.603608
H -1.671789 1.330471 -1.901495
H -0.805159 1.711364 -0.394182
O -2.250784 0.162305 0.754993
C -3.410392 0.964969 0.412836
H -3.886021 1.23726 1.361489
H -3.145634 1.884145 -0.130715
H -4.135542 0.40338 -0.202361
C 2.382994 0.555073 -0.031509
O 2.672405 1.544159 0.705565
O 2.192583 0.483833 -1.295839
21
G: 25 x 25 i: 20 j: 6 E: 0.8737409934510652
C -1.553071 -0.446912 -0.380156
H -2.246199 -1.147329 -0.86417
H 0.09727 0.392552 1.232246
C -0.316615 -1.231426 0.083102
O -0.077586 -2.378459 -0.33671
N 0.441438 -0.53274 0.978162
C 1.925734 -0.6177 0.874461
H 2.150281 -1.575591 0.40741
H 2.376038 -0.515776 1.865228
C -1.043919 0.627125 -1.376591
H -0.040176 0.366207 -1.755701
H -1.748285 0.796527 -2.19841
H -0.913581 1.562223 -0.818906
O -2.099811 0.311632 0.763123
C -3.283418 1.068849 0.40087
H -3.614223 1.576705 1.313348
H -3.083779 1.822335 -0.37533
H -4.096524 0.414845 0.040174
C 2.297677 0.610119 -0.070812
O 2.515218 1.702936 0.531919
O 2.146028 0.360911 -1.318115
21
G: 25 x 25 i: 21 j: 6 E: 0.7865631345375732
C -1.680359 -0.481569 -0.087223
H -2.585589 -1.104987 -0.068097
H 0.207688 0.419276 1.130954
C -0.449081 -1.310795 0.327178
O -0.366924 -2.519137 0.03114
N 0.491006 -0.540207 0.932339
C 1.935982 -0.704092 0.629305
H 2.03596 -1.614083 0.036752
H 2.523347 -0.745108 1.550802
C -1.355513 -0.04445 -1.535176
H -0.308069 0.290297 -1.614183
H -1.460611 -0.929759 -2.172103
H -2.044789 0.727612 -1.895866
O -1.747984 0.735475 0.735399
C -2.831699 1.62839 0.377558
H -2.809465 2.438097 1.11426
H -2.718743 2.059694 -0.626805
H -3.812759 1.124798 0.427514
C 2.28272 0.61443 -0.205795
O 2.653487 1.599492 0.498867
O 1.976883 0.547185 -1.445991
21
G: 25 x 25 i: 22 j: 6 E: 0.753653508170828
C -1.655296 -0.512868 0.037742
H -2.553878 -1.114835 0.23447
H 0.227037 0.426978 1.234551
C -0.37103 -1.29223 0.387401
O -0.248226 -2.480921 0.031264
N 0.539107 -0.527181 1.044802
C 1.978214 -0.624285 0.670497
H 2.106021 -1.569647 0.143014
H 2.607637 -0.554155 1.561325
C -1.477153 -0.261056 -1.478799
H -0.461291 0.126655 -1.662584
H -1.555546 -1.232061 -1.977734
H -2.242321 0.412797 -1.880536
O -1.631332 0.810176 0.673118
C -2.756828 1.654335 0.33062
H -2.643239 2.563805 0.929251
H -2.775809 1.929691 -0.732828
H -3.720376 1.177313 0.58099
C 2.189236 0.641923 -0.281976
O 2.529472 1.702253 0.322077
O 1.824481 0.454595 -1.493515
21
G: 25 x 25 i: 23 j: 6 E: 0.7882797654947353
C -1.605573 -0.532193 0.127551
H -2.470539 -1.098318 0.503486
H 0.262179 0.466416 1.311924
C -0.272021 -1.24888 0.432158
O -0.102823 -2.424519 0.054742
N 0.601029 -0.48533 1.146652
C 2.034146 -0.517118 0.718848
H 2.21158 -1.494817 0.271658
H 2.682278 -0.319733 1.576029
C -1.590563 -0.468895 -1.417085
H -0.618729 -0.048527 -1.720532
H -1.647699 -1.495164 -1.789933
H -2.426807 0.116864 -1.815274
O -1.533675 0.873255 0.543551
C -2.758004 1.614513 0.333279
H -2.573795 2.619096 0.726774
H -3.028792 1.693999 -0.72906
H -3.610751 1.166374 0.873167
C 2.103847 0.666684 -0.353093
O 2.383173 1.801842 0.135638
O 1.696186 0.337729 -1.519525
21
G: 25 x 25 i: 24 j: 6 E: 0.8753440984619374
C -1.557216 -0.517951 0.081958
H -2.424459 -1.021638 0.535579
H 0.203998 0.559306 1.34617
C -0.230489 -1.19218 0.502119
O 0.020218 -2.35237 0.126808
N 0.577295 -0.392469 1.263658
C 2.016924 -0.371005 0.834789
H 2.157644 -1.401321 0.509748
H 2.730587 -0.062476 1.602441
C -1.554699 -0.613781 -1.457396
H -0.608311 -0.160175 -1.78497
H -1.547852 -1.671038 -1.732545
H -2.420563 -0.112799 -1.904404
O -1.495835 0.890663 0.490696
C -2.753354 1.594182 0.361769
H -2.570446 2.608057 0.728079
H -3.099699 1.650989 -0.679342
H -3.553409 1.130748 0.964562
C 1.976692 0.648549 -0.396521
O 2.441951 1.802525 -0.144683
O 1.496703 0.151775 -1.471725
21
G: 25 x 25 i: 24 j: 7 E: 0.8104270667954552
C -1.547526 -0.492559 -0.059797
H -2.443692 -1.012609 0.312402
H 0.094507 0.692682 1.246158
C -0.276773 -1.131342 0.548032
O 0.031201 -2.301706 0.257008
N 0.485959 -0.253026 1.267611
C 1.947737 -0.288488 0.957651
H 2.204853 -1.333762 0.781291
H 2.51556 0.148623 1.782107
C -1.377282 -0.607826 -1.586777
H -0.414123 -0.130037 -1.812575
H -1.307943 -1.668047 -1.84173
H -2.2056 -0.141315 -2.132293
O -1.625027 0.863583 0.504552
C -2.912398 1.497412 0.319178
H -2.84342 2.473452 0.809756
H -3.157637 1.650277 -0.741913
H -3.732025 0.918405 0.780677
C 2.093004 0.589092 -0.375602
O 2.575151 1.748527 -0.221551
O 1.559579 0.036569 -1.399167
21
G: 25 x 25 i: 23 j: 7 E: 0.7315571193885262
C -1.570761 -0.465354 -0.166613
H -2.470112 -1.08148 -0.019671
H 0.075177 0.617357 1.225236
C -0.350147 -1.17464 0.458819
O -0.058161 -2.336821 0.117531
N 0.444504 -0.334044 1.177224
C 1.912013 -0.416437 0.936722
H 2.12165 -1.448467 0.651958
H 2.459753 -0.112789 1.831945
C -1.209746 -0.296683 -1.658495
H -0.215777 0.175632 -1.69649
H -1.12663 -1.296131 -2.094428
H -1.963038 0.283784 -2.203493
O -1.798265 0.742706 0.638534
C -3.045119 1.415676 0.347109
H -3.103316 2.260542 1.040847
H -3.090071 1.798272 -0.682509
H -3.917391 0.757775 0.507341
C 2.189206 0.597255 -0.271644
O 2.725564 1.697928 0.045643
O 1.701555 0.1993 -1.386293
21
G: 25 x 25 i: 22 j: 7 E: 0.7008903923906473
C -1.602301 -0.410504 -0.259646
H -2.493056 -1.050414 -0.332974
H 0.087307 0.508798 1.184564
C -0.440204 -1.227219 0.340289
O -0.196447 -2.3823 -0.06077
N 0.418317 -0.445921 1.04566
C 1.879955 -0.593617 0.829558
H 2.025978 -1.575348 0.375771
H 2.42121 -0.493647 1.773726
C -1.092122 0.031899 -1.650583
H -0.079709 0.45468 -1.532854
H -1.004965 -0.868573 -2.266832
H -1.774947 0.737157 -2.138076
O -1.94717 0.59759 0.752883
C -3.101846 1.402981 0.415149
H -3.279554 2.052731 1.278302
H -2.940946 2.029077 -0.473423
H -3.998853 0.783338 0.241834
C 2.283826 0.589951 -0.169774
O 2.88709 1.569164 0.356105
O 1.824712 0.438384 -1.35567
21
G: 25 x 25 i: 21 j: 7 E: 0.7316568491569342
C -1.614421 -0.318848 -0.352592
H -2.478318 -0.937821 -0.633055
H 0.132793 0.422535 1.122204
C -0.516379 -1.244066 0.206516
O -0.339961 -2.396985 -0.233736
N 0.412186 -0.529833 0.89352
C 1.86157 -0.751001 0.680856
H 1.949655 -1.645222 0.060543
H 2.385783 -0.86734 1.633275
C -0.991724 0.379061 -1.583585
H 0.030033 0.723618 -1.346489
H -0.905146 -0.372396 -2.376452
H -1.617434 1.20117 -1.950018
O -2.08622 0.452624 0.809195
C -3.202707 1.328821 0.517162
H -3.493539 1.77534 1.47381
H -2.94522 2.132989 -0.186101
H -4.063088 0.773933 0.104461
C 2.386555 0.559009 -0.074469
O 3.044204 1.37293 0.635154
O 1.954704 0.669452 -1.275631
21
G: 25 x 25 i: 20 j: 7 E: 0.8379595034948579
C -1.597636 -0.163821 -0.431635
H -2.396514 -0.71975 -0.942902
H 0.21873 0.335656 1.088397
C -0.553071 -1.200665 0.027739
O -0.448605 -2.327752 -0.493397
N 0.43371 -0.595978 0.740066
C 1.867003 -0.88709 0.51571
H 1.910312 -1.661137 -0.253517
H 2.357411 -1.21173 1.437834
C -0.90548 0.834642 -1.388853
H 0.136395 1.029528 -1.082276
H -0.865432 0.375746 -2.383904
H -1.470566 1.770565 -1.469093
O -2.23753 0.267952 0.826524
C -3.41189 1.091818 0.621006
H -3.820611 1.290597 1.61745
H -3.186927 2.051068 0.132789
H -4.176585 0.573255 0.016549
C 2.501042 0.495926 0.018361
O 3.192534 1.120268 0.872654
O 2.100852 0.853681 -1.14525
21
G: 25 x 25 i: 19 j: 7 E: 0.8723587089261855
C -1.470884 0.037082 -0.413658
H -1.964814 -0.306253 -1.332634
H 0.265787 0.199263 1.344918
C -0.422531 -1.048555 -0.107706
O -0.258073 -2.035921 -0.847021
N 0.468376 -0.671151 0.858335
C 1.913739 -0.935629 0.635581
H 1.962541 -1.779318 -0.053239
H 2.415422 -1.146397 1.583457
C -0.778007 1.400997 -0.615505
H 0.275344 1.244596 -0.915607
H -1.309531 2.028359 -1.340055
H -0.762658 1.923316 0.349741
O -2.502854 -0.131423 0.631509
C -3.67332 0.685766 0.370816
H -4.385328 0.469189 1.174956
H -3.448297 1.762763 0.373193
H -4.142673 0.439351 -0.597977
C 2.48286 0.399834 -0.028314
O 3.166616 1.150166 0.724578
O 2.032364 0.595456 -1.214363
21
G: 25 x 25 i: 18 j: 7 E: 0.9490882622958452
C -1.451739 0.121037 -0.313137
H -1.823471 -0.107462 -1.321882
H 0.446545 0.194443 1.337759
C -0.4289 -1.009814 -0.056706
O -0.36524 -2.006071 -0.800445
N 0.552857 -0.686697 0.840515
C 1.965277 -0.997832 0.489686
H 1.924011 -1.784704 -0.263818
H 2.525229 -1.30539 1.376351
C -0.780554 1.50327 -0.278964
H 0.26191 1.404865 -0.634901
H -1.329756 2.236032 -0.881368
H -0.758406 1.863607 0.757721
O -2.608691 -0.191654 0.551602
C -3.763915 0.620602 0.219088
H -4.578187 0.276435 0.866458
H -3.596375 1.693616 0.397075
H -4.06907 0.495936 -0.835084
C 2.538752 0.371658 -0.099701
O 3.306701 1.025779 0.661776
O 1.998985 0.695193 -1.218372
21
G: 25 x 25 i: 17 j: 7 E: 1.0341476595622225
C -1.430856 0.184228 -0.200802
H -1.686438 0.062303 -1.263934
H 0.603349 0.185037 1.3241
C -0.441795 -0.989959 0.022408
O -0.485056 -2.004246 -0.698325
N 0.629842 -0.699371 0.823127
C 1.997274 -1.040605 0.341693
H 1.866952 -1.765725 -0.462391
H 2.610436 -1.436805 1.154871
C -0.786847 1.556413 0.025563
H 0.244829 1.519071 -0.368749
H -1.354336 2.352245 -0.47076
H -0.759025 1.782717 1.099242
O -2.681198 -0.213907 0.476829
C -3.810103 0.585269 0.040943
H -4.693308 0.163312 0.533326
H -3.719279 1.645651 0.322207
H -3.954402 0.536979 -1.05302
C 2.579 0.355712 -0.178003
O 3.427199 0.914625 0.574214
O 1.963091 0.796586 -1.213666
21
G: 25 x 25 i: 16 j: 7 E: 1.1259509388892184
C -1.407763 0.227184 -0.08602
H -1.543104 0.207551 -1.179285
H 0.733347 0.166872 1.303839
C -0.457955 -0.986792 0.114769
O -0.602449 -2.019226 -0.565096
N 0.694616 -0.7156 0.801764
C 2.006992 -1.067804 0.19031
H 1.790031 -1.721283 -0.656105
H 2.665488 -1.549677 0.917221
C -0.799901 1.574259 0.312123
H 0.223398 1.60568 -0.101009
H -1.387793 2.407455 -0.090393
H -0.773466 1.679032 1.404167
O -2.7272 -0.217519 0.398976
C -3.806439 0.576096 -0.154365
H -4.736931 0.110631 0.189092
H -3.788853 1.623894 0.183916
H -3.79487 0.57786 -1.258692
C 2.601453 0.351632 -0.254712
O 3.523876 0.813674 0.475563
O 1.922288 0.904788 -1.191658
21
G: 25 x 25 i: 15 j: 7 E: 1.2207749281478755
C -1.363661 0.250561 0.042286
H -1.349811 0.347847 -1.056816
H 0.848073 0.119526 1.315756
C -0.458072 -0.999869 0.220401
O -0.685484 -2.03768 -0.425528
N 0.757459 -0.754487 0.806158
C 2.004369 -1.07956 0.054055
H 1.704231 -1.674007 -0.810759
H 2.72102 -1.613575 0.682932
C -0.817006 1.552311 0.631695
H 0.197483 1.675904 0.218862
H -1.436628 2.405025 0.33035
H -0.798785 1.518624 1.727911
O -2.734759 -0.216689 0.298944
C -3.725336 0.588853 -0.384913
H -4.691522 0.103919 -0.20686
H -3.775761 1.623918 -0.010883
H -3.542905 0.632815 -1.473041
C 2.570379 0.366662 -0.343869
O 3.560325 0.772231 0.329114
O 1.804713 0.990595 -1.16234
21
G: 25 x 25 i: 14 j: 7 E: 1.256792776293878
C -1.188406 0.229714 0.277588
H -0.877757 0.603822 -0.709943
H 1.016758 -0.06078 1.521417
C -0.325084 -1.045298 0.336045
O -0.576756 -2.018247 -0.389654
N 0.914192 -0.899735 0.952303
C 2.076096 -1.021897 0.007307
H 1.772647 -1.726846 -0.767072
H 2.971847 -1.353147 0.538401
C -0.888761 1.330909 1.298607
H 0.106054 1.723493 1.066579
H -1.615216 2.144026 1.184153
H -0.947468 0.962162 2.328997
O -2.57494 -0.227616 0.115679
C -3.322665 0.621686 -0.787616
H -4.313997 0.166079 -0.891482
H -3.447971 1.65105 -0.410225
H -2.849944 0.684931 -1.781653
C 2.240461 0.471129 -0.532809
O 3.209543 1.130696 -0.058135
O 1.221636 0.863403 -1.210393
21
G: 25 x 25 i: 13 j: 7 E: 0.9334690022569703
C -1.214862 0.647647 -0.244235
H -0.636638 0.261847 -1.103809
H 0.975193 1.489103 0.614742
C -0.418283 0.032207 0.917464
O -0.716148 -1.057062 1.444072
N 0.805537 0.641688 1.155442
C 1.979344 -0.287717 1.025918
H 1.665341 -1.242703 1.446164
H 2.849737 0.129944 1.537497
C -1.303486 2.18162 -0.276139
H -0.328833 2.644275 -0.455305
H -1.974736 2.458576 -1.094197
H -1.723997 2.552684 0.663702
O -2.55513 0.065374 -0.318803
C -2.529034 -1.353133 -0.691382
H -3.578103 -1.668727 -0.738629
H -2.062132 -1.499808 -1.679488
H -1.978281 -1.928073 0.05347
C 2.193925 -0.355323 -0.557496
O 3.172884 0.302405 -1.015385
O 1.211902 -0.92081 -1.157012
21
G: 25 x 25 i: 12 j: 7 E: 0.8659208190183563
C -1.259511 0.461532 -0.508451
H -0.555381 0.013529 -1.226273
H 0.854937 1.709875 -0.249028
C -0.432542 0.515287 0.781859
O -0.679269 -0.174412 1.782682
N 0.740852 1.273371 0.669928
C 1.954159 0.417646 0.952617
H 1.711886 -0.171428 1.836634
H 2.833844 1.04875 1.097026
C -1.799641 1.822961 -0.972111
H -1.00079 2.548483 -1.150009
H -2.363344 1.679472 -1.899403
H -2.47981 2.210103 -0.207429
O -2.346711 -0.491105 -0.339219
C -1.811315 -1.843662 -0.058591
H -2.350477 -2.55515 -0.698778
H -0.732709 -1.882677 -0.264734
H -1.955875 -2.085079 0.996383
C 2.079994 -0.475121 -0.361092
O 2.996031 -0.154127 -1.170362
O 1.088059 -1.283022 -0.514261
21
G: 25 x 25 i: 11 j: 7 E: 0.774154792092304
C -1.345892 0.325165 -0.565651
H -0.581149 -0.032448 -1.271486
H 0.721221 1.64455 -0.602188
C -0.526345 0.681548 0.684899
O -0.738109 0.203439 1.809697
N 0.630726 1.404766 0.388999
C 1.876876 0.692144 0.84556
H 1.637025 0.252462 1.813525
H 2.715225 1.390159 0.900463
C -2.158837 1.505685 -1.111567
H -1.521301 2.36962 -1.324211
H -2.676072 1.199606 -2.026654
H -2.907096 1.782281 -0.36253
O -2.184652 -0.825064 -0.28482
C -1.374725 -1.974674 0.189268
H -1.741677 -2.868166 -0.332585
H -0.308501 -1.809823 -0.019125
H -1.495788 -2.080911 1.269997
C 2.105828 -0.403282 -0.286258
O 3.031842 -0.166164 -1.112856
O 1.176119 -1.292237 -0.325234
21
G: 25 x 25 i: 10 j: 7 E: 0.7792472144919884
C -1.548784 0.189801 -0.597151
H -0.904412 0.022872 -1.474748
H 0.545932 1.445061 -0.974202
C -0.621938 0.712905 0.520899
O -0.773873 0.404731 1.714827
N 0.474607 1.401176 0.044018
C 1.78471 1.013595 0.656005
H 1.570079 0.757954 1.693641
H 2.503299 1.831197 0.565968
C -2.674643 1.184291 -0.906571
H -2.265994 2.149363 -1.223533
H -3.323457 0.777027 -1.688825
H -3.261523 1.316849 0.007201
O -2.056001 -1.114106 -0.229146
C -0.974861 -2.020123 0.239845
H -1.15532 -2.99899 -0.221858
H 0.024108 -1.637625 -0.022779
H -1.022329 -2.09258 1.329651
C 2.24494 -0.255888 -0.196402
O 3.166177 -0.046747 -1.038214
O 1.50255 -1.284733 -0.022267
21
G: 25 x 25 i: 9 j: 7 E: 0.7460071329260245
C -1.693931 0.113153 -0.63403
H -1.205668 0.062288 -1.62013
H 0.497644 1.177224 -1.211692
C -0.700377 0.729962 0.372182
O -0.864533 0.598849 1.599788
N 0.403333 1.297964 -0.203591
C 1.704808 1.149816 0.507577
H 1.459304 1.025305 1.56248
H 2.339279 2.02017 0.325717
C -2.985053 0.938975 -0.688555
H -2.794961 1.943408 -1.081375
H -3.72505 0.424878 -1.309872
H -3.358648 1.006376 0.337342
O -1.962979 -1.259518 -0.24469
C -0.762678 -1.970396 0.2669
H -0.812719 -2.99311 -0.125845
H 0.187511 -1.490051 -0.020538
H -0.795226 -1.977186 1.360424
C 2.362347 -0.169772 -0.115333
O 3.3068 0.028946 -0.933889
O 1.750023 -1.247712 0.198314
21
G: 25 x 25 i: 8 j: 7 E: 0.692816145145116
C -1.775843 0.057036 -0.662244
H -1.37666 0.062143 -1.688279
H 0.484443 0.93713 -1.317465
C -0.778886 0.767891 0.272449
O -0.978566 0.809179 1.503861
N 0.367295 1.182288 -0.336025
C 1.643338 1.174195 0.426342
H 1.364844 1.104978 1.478493
H 2.224 2.07407 0.210241
C -3.149675 0.730745 -0.58683
H -3.126111 1.736049 -1.021867
H -3.889488 0.113977 -1.105584
H -3.402327 0.792957 0.475465
O -1.858838 -1.348903 -0.275363
C -0.629673 -1.878813 0.366975
H -0.604087 -2.947412 0.124978
H 0.302416 -1.389153 0.03684
H -0.695991 -1.734034 1.450175
C 2.433076 -0.126542 -0.075356
O 3.395197 0.097828 -0.865699
O 1.903941 -1.229828 0.294847
21
G: 25 x 25 i: 7 j: 7 E: 0.6408445816832682
C -1.836036 0.011758 -0.678369
H -1.519544 0.06038 -1.730912
H 0.470931 0.715219 -1.373293
C -0.842057 0.808525 0.185348
O -1.062318 1.011086 1.398912
N 0.340838 1.072662 -0.429493
C 1.596946 1.176484 0.354015
H 1.300657 1.15871 1.403718
H 2.134805 2.092384 0.096638
C -3.257691 0.546081 -0.493024
H -3.374887 1.537422 -0.945884
H -3.971703 -0.154203 -0.935304
H -3.422971 0.616535 0.585642
O -1.740353 -1.410599 -0.322661
C -0.547113 -1.78248 0.476837
H -0.47859 -2.872142 0.38632
H 0.394755 -1.316069 0.140365
H -0.695897 -1.498838 1.524697
C 2.477264 -0.100738 -0.047113
O 3.444972 0.134413 -0.82678
O 2.011285 -1.210627 0.384067
21
G: 25 x 25 i: 6 j: 7 E: 0.5968019293959514
C -1.874746 0.012752 -0.686541
H -1.698502 0.158785 -1.760773
H 0.448728 0.586435 -1.446629
C -0.850621 0.843847 0.10755
O -1.046317 1.143128 1.306015
N 0.331263 1.026708 -0.536527
C 1.591168 1.217162 0.221976
H 1.298221 1.340246 1.265269
H 2.132703 2.088016 -0.156378
C -3.301601 0.404705 -0.297393
H -3.554411 1.405144 -0.668514
H -4.002552 -0.331033 -0.700278
H -3.346967 0.413624 0.794935
O -1.585647 -1.422196 -0.505709
C -0.571476 -1.73697 0.52998
H -0.481855 -2.828169 0.4917
H 0.41157 -1.273456 0.337938
H -0.913906 -1.423874 1.523666
C 2.472194 -0.102277 0.004012
O 3.442636 0.022745 -0.79725
O 2.014157 -1.138425 0.596599
21
G: 25 x 25 i: 5 j: 7 E: 0.5459844012693793
C -1.902781 1.9e-05 -0.674239
H -1.878288 0.203158 -1.751935
H 0.417413 0.408209 -1.493566
C -0.854806 0.88917 0.025339
O -1.026368 1.318352 1.186201
N 0.32006 0.975279 -0.652983
C 1.590668 1.248064 0.061636
H 1.307508 1.547313 1.071463
H 2.150244 2.031762 -0.455908
C -3.29699 0.245867 -0.094049
H -3.665605 1.240398 -0.37097
H -3.982287 -0.521509 -0.463743
H -3.226817 0.202794 0.995614
O -1.431634 -1.394901 -0.650321
C -0.587858 -1.717749 0.527282
H -0.469692 -2.806062 0.485981
H 0.401606 -1.230967 0.48025
H -1.084323 -1.436219 1.465895
C 2.444034 -0.10515 0.071363
O 3.415799 -0.139212 -0.737129
O 1.97173 -1.012634 0.839224
21
G: 25 x 25 i: 4 j: 7 E: 0.485136725124903
C -1.931754 -0.036753 -0.624425
H -2.067233 0.183061 -1.690265
H 0.369785 0.12553 -1.461531
C -0.862894 0.92697 -0.065292
O -1.025905 1.564027 0.994731
N 0.300237 0.873532 -0.771261
C 1.585327 1.255732 -0.136055
H 1.320805 1.764078 0.79228
H 2.154938 1.903028 -0.80847
C -3.250771 0.105581 0.139388
H -3.699495 1.085432 -0.055308
H -3.936895 -0.686901 -0.172554
H -3.055878 0.040271 1.212213
O -1.339755 -1.3769 -0.730423
C -0.539148 -1.754107 0.459834
H -0.304976 -2.813094 0.306871
H 0.399749 -1.178646 0.538082
H -1.121841 -1.647882 1.386859
C 2.408566 -0.08237 0.151783
O 3.372303 -0.312689 -0.633291
O 1.916285 -0.796929 1.093891
21
G: 25 x 25 i: 3 j: 7 E: 0.40746429685896146
C -1.951063 -0.06693 -0.554298
H -2.259963 0.155594 -1.583456
H 0.327809 -0.096199 -1.398808
C -0.865198 0.959734 -0.161146
O -1.026869 1.780345 0.763944
N 0.287341 0.771073 -0.861454
C 1.582848 1.231928 -0.305735
H 1.33441 1.914026 0.508988
H 2.169883 1.724151 -1.086123
C -3.147565 0.010923 0.399097
H -3.626742 0.990117 0.30915
H -3.862841 -0.780729 0.156252
H -2.809759 -0.091499 1.432886
O -1.300675 -1.3585 -0.800492
C -0.48327 -1.826176 0.346268
H -0.122482 -2.812771 0.037752
H 0.383711 -1.173151 0.549193
H -1.095888 -1.94178 1.252608
C 2.361024 -0.052486 0.233591
O 3.31645 -0.462858 -0.484953
O 1.832321 -0.56239 1.284636
21
G: 25 x 25 i: 2 j: 7 E: 0.3581578447956417
C -1.962765 -0.086221 -0.480462
H -2.439836 0.139285 -1.443835
H 0.302294 -0.224022 -1.334513
C -0.876269 0.991651 -0.248185
O -1.049166 1.942879 0.541222
N 0.28112 0.697505 -0.896517
C 1.575669 1.204193 -0.384041
H 1.329292 1.975318 0.348007
H 2.178272 1.600489 -1.206243
C -3.003463 -0.051938 0.644275
H -3.444916 0.946824 0.684433
H -3.777591 -0.804851 0.46537
H -2.526328 -0.234576 1.610481
O -1.306425 -1.337874 -0.868131
C -0.451623 -1.904954 0.207263
H -0.013863 -2.802599 -0.240457
H 0.362786 -1.225335 0.514189
H -1.055826 -2.201632 1.076589
C 2.323641 -0.029319 0.298235
O 3.2778 -0.533129 -0.359904
O 1.763632 -0.420865 1.384198
21
G: 25 x 25 i: 1 j: 7 E: 0.3618267846195522
C -1.967675 -0.092588 -0.403517
H -2.605379 0.142611 -1.267166
H 0.289157 -0.281443 -1.278898
C -0.895559 1.025858 -0.321013
O -1.086734 2.063637 0.34831
N 0.277396 0.66214 -0.893182
C 1.564009 1.193921 -0.391118
H 1.31025 1.994353 0.306537
H 2.178345 1.558088 -1.219573
C -2.815429 -0.096677 0.875313
H -3.204426 0.913432 1.021856
H -3.634331 -0.818848 0.794282
H -2.197441 -0.339079 1.744233
O -1.349366 -1.309589 -0.933893
C -0.460084 -1.987483 0.048878
H 0.007625 -2.795632 -0.521698
H 0.330596 -1.325746 0.443997
H -1.04698 -2.424039 0.869073
C 2.297908 -0.019913 0.34284
O 3.25616 -0.550848 -0.287362
O 1.716413 -0.377873 1.429362
21
G: 25 x 25 i: 0 j: 7 E: 0.42125214826955926
C -1.954993 0.033989 -0.423235
H -2.682387 0.396598 -1.162465
H 0.297597 -0.138811 -1.345865
C -0.844833 1.108294 -0.271907
O -1.047379 2.139914 0.404859
N 0.322757 0.750534 -0.851694
C 1.624069 1.176734 -0.293299
H 1.291921 1.844834 0.503601
H 2.313023 1.676081 -0.980419
C -2.667742 -0.106567 0.930583
H -3.000869 0.891211 1.224889
H -3.517641 -0.792681 0.856208
H -1.971277 -0.465332 1.693532
O -1.448553 -1.205547 -1.013825
C -0.715364 -2.058828 -0.037497
H -0.25149 -2.837023 -0.650427
H 0.072952 -1.510669 0.507308
H -1.415772 -2.528091 0.666311
C 2.290168 -0.152393 0.292169
O 3.398932 -0.489066 -0.2165
O 1.624102 -0.669953 1.259002
21
G: 25 x 25 i: 0 j: 8 E: 0.31961964987931424
C -1.840682 0.230129 -0.450665
H -2.6055 0.732576 -1.056526
H 0.315797 0.049822 -1.562483
C -0.633021 1.171244 -0.217653
O -0.73086 2.144931 0.555757
N 0.443912 0.899179 -1.011205
C 1.774575 1.086504 -0.385112
H 1.658084 1.90611 0.327741
H 2.53591 1.309009 -1.136138
C -2.390062 -0.030521 0.965627
H -2.714229 0.929847 1.372921
H -3.221662 -0.742422 0.948462
H -1.565518 -0.396194 1.586286
O -1.501262 -1.060834 -1.060145
C -1.008029 -2.076033 -0.093402
H -0.560575 -2.857869 -0.716235
H -0.258279 -1.651371 0.592788
H -1.844482 -2.506787 0.475345
C 2.122061 -0.280207 0.356685
O 3.158486 -0.888096 -0.025341
O 1.19914 -0.65521 1.178904
21
G: 25 x 25 i: 1 j: 8 E: 0.2905870760951075
C -1.913282 0.181638 -0.574538
H -2.396402 0.656292 -1.440146
H 0.353158 -0.035466 -1.427176
C -0.709461 1.048365 -0.120731
O -0.850217 1.975 0.705303
N 0.416632 0.785593 -0.827284
C 1.742739 1.123633 -0.275458
H 1.554392 1.81483 0.550215
H 2.378766 1.579874 -1.038793
C -2.923554 0.142506 0.57943
H -3.174429 1.173699 0.838038
H -3.821208 -0.413385 0.289927
H -2.475899 -0.318055 1.46432
O -1.563782 -1.19198 -0.942634
C -1.099214 -2.002827 0.216894
H -0.762653 -2.944545 -0.228443
H -0.255594 -1.530669 0.75359
H -1.931351 -2.212689 0.903543
C 2.4228 -0.223948 0.249562
O 3.514622 -0.546993 -0.29584
O 1.711206 -0.846683 1.117542
21
G: 25 x 25 i: 2 j: 8 E: 0.29347102154679305
C -1.895134 0.199098 -0.630551
H -2.205832 0.660625 -1.577704
H 0.391136 0.013939 -1.441971
C -0.687861 0.973983 -0.048237
O -0.815299 1.799295 0.879152
N 0.433954 0.80124 -0.795061
C 1.760521 1.127181 -0.232758
H 1.56596 1.755095 0.640517
H 2.37375 1.650832 -0.971024
C -3.055341 0.286624 0.367334
H -3.308656 1.338625 0.519207
H -3.921829 -0.264683 -0.011244
H -2.755123 -0.11805 1.337183
O -1.627569 -1.219723 -0.879702
C -1.199487 -1.953201 0.340611
H -1.01126 -2.973425 -0.009352
H -0.271326 -1.541658 0.778588
H -2.005301 -1.979766 1.088167
C 2.488287 -0.227838 0.196266
O 3.582865 -0.479118 -0.380906
O 1.815614 -0.923617 1.038589
21
G: 25 x 25 i: 3 j: 8 E: 0.3486441690929496
C -1.873158 0.208496 -0.69141
H -2.001349 0.630191 -1.696305
H 0.458342 0.101511 -1.421488
C -0.691282 0.8991 0.026195
O -0.842746 1.59157 1.052539
N 0.453991 0.828578 -0.705659
C 1.762055 1.12716 -0.082235
H 1.532187 1.591368 0.880256
H 2.343561 1.800726 -0.717378
C -3.147449 0.438303 0.127441
H -3.393081 1.504093 0.135446
H -3.971678 -0.134484 -0.308113
H -2.98645 0.134183 1.164223
O -1.723719 -1.24557 -0.808111
C -1.31357 -1.891031 0.464582
H -1.341805 -2.963887 0.246427
H -0.289029 -1.607647 0.767558
H -2.030464 -1.676378 1.27082
C 2.576143 -0.230271 0.122658
O 3.684163 -0.307348 -0.478349
O 1.960475 -1.099936 0.835768
21
G: 25 x 25 i: 4 j: 8 E: 0.4205857139550062
C -1.825059 0.108298 -0.785064
H -1.685893 0.296222 -1.856029
H 0.619996 -0.039886 -1.154663
C -0.748067 0.840297 0.042944
O -1.030217 1.519312 1.051489
N 0.491394 0.744225 -0.510207
C 1.697487 0.982476 0.326533
H 1.377442 0.976698 1.373648
H 2.160776 1.939612 0.076023
C -3.204163 0.586061 -0.328894
H -3.360192 1.635479 -0.600612
H -3.973585 -0.038202 -0.791342
H -3.26249 0.511572 0.759855
O -1.883541 -1.340121 -0.523577
C -1.372779 -1.727806 0.81685
H -1.799881 -2.719276 1.004101
H -0.270793 -1.782909 0.821109
H -1.721363 -1.032768 1.594386
C 2.713619 -0.198151 0.009728
O 3.835686 0.122143 -0.466412
O 2.191822 -1.36423 0.170049
21
G: 25 x 25 i: 5 j: 8 E: 0.46963047401732183
C -1.793212 0.072262 -0.781528
H -1.490598 0.095724 -1.836556
H 0.681121 -0.013522 -1.092884
C -0.75422 0.800942 0.094234
O -1.078097 1.422777 1.128081
N 0.50777 0.724719 -0.404519
C 1.680667 0.862954 0.498612
H 1.355893 0.628059 1.518614
H 2.093705 1.872757 0.45567
C -3.154212 0.735622 -0.586881
H -3.191035 1.711072 -1.085639
H -3.935304 0.083625 -0.986435
H -3.297975 0.889479 0.485763
O -2.10725 -1.29466 -0.310166
C -1.331471 -1.76434 0.862472
H -1.801414 -2.716961 1.130793
H -0.262342 -1.919258 0.642921
H -1.428848 -1.063139 1.703077
C 2.74657 -0.182456 -0.048448
O 3.856602 0.265067 -0.437928
O 2.248454 -1.367029 -0.171795
21
G: 25 x 25 i: 6 j: 8 E: 0.4899079986225843
C -1.751081 0.06863 -0.764075
H -1.344144 -0.034871 -1.779609
H 0.713272 0.088414 -1.076836
C -0.740199 0.770418 0.164964
O -1.092548 1.301532 1.238376
N 0.526671 0.764983 -0.330359
C 1.694152 0.796913 0.590804
H 1.363316 0.450487 1.576699
H 2.118461 1.80008 0.662816
C -3.055678 0.859383 -0.761044
H -2.95872 1.784401 -1.340656
H -3.858268 0.242696 -1.174693
H -3.27108 1.109719 0.28132
O -2.269954 -1.181408 -0.175075
C -1.362236 -1.842185 0.791938
H -1.840169 -2.804761 1.003688
H -0.335785 -2.001483 0.42273
H -1.304118 -1.252335 1.717067
C 2.748445 -0.191888 -0.0778
O 3.862778 0.284156 -0.4166
O 2.228489 -1.342385 -0.352795
21
G: 25 x 25 i: 7 j: 8 E: 0.5443750104259379
C -1.710623 0.115024 -0.751073
H -1.269257 -0.017726 -1.749199
H 0.728004 0.338794 -1.135338
C -0.695281 0.712176 0.243061
O -1.039162 1.053186 1.392863
N 0.549619 0.878975 -0.286419
C 1.739131 0.815615 0.608979
H 1.393935 0.474129 1.590138
H 2.229365 1.78783 0.69045
C -2.936897 1.025062 -0.792951
H -2.720597 1.960338 -1.320941
H -3.764611 0.502655 -1.281185
H -3.195943 1.242395 0.247056
O -2.377518 -1.066339 -0.188559
C -1.481899 -1.909954 0.642164
H -1.959307 -2.89515 0.677999
H -0.452576 -1.999324 0.253025
H -1.418489 -1.48924 1.653445
C 2.725506 -0.225278 -0.090372
O 3.860027 0.201085 -0.434226
O 2.149467 -1.344606 -0.367498
21
G: 25 x 25 i: 8 j: 8 E: 0.6172509674379398
C -1.672906 0.221409 -0.724005
H -1.248326 0.175077 -1.738605
H 0.703639 0.846993 -1.204181
C -0.610485 0.619964 0.318024
O -0.88893 0.647933 1.533919
N 0.567412 1.051663 -0.216239
C 1.81462 0.904403 0.577553
H 1.497668 0.647754 1.591073
H 2.401812 1.825301 0.564262
C -2.810264 1.24362 -0.642343
H -2.495382 2.221986 -1.021447
H -3.67155 0.879804 -1.210522
H -3.075533 1.323989 0.415634
O -2.446549 -0.943796 -0.306055
C -1.628653 -1.980981 0.374616
H -2.098806 -2.942301 0.138061
H -0.568069 -1.985517 0.066341
H -1.650017 -1.802356 1.455012
C 2.655794 -0.273095 -0.107333
O 3.797013 0.046728 -0.544091
O 2.006472 -1.371402 -0.223901
21
G: 25 x 25 i: 9 j: 8 E: 0.6725056403283816
C -1.60266 0.275398 -0.683901
H -1.151079 0.194838 -1.685408
H 0.705374 1.148784 -1.110654
C -0.525151 0.550785 0.384505
O -0.757092 0.370947 1.594887
N 0.599604 1.163821 -0.097473
C 1.877481 0.902102 0.615295
H 1.599379 0.640987 1.638292
H 2.530451 1.776825 0.581995
C -2.617042 1.424149 -0.627397
H -2.160949 2.368898 -0.941589
H -3.475379 1.189236 -1.264607
H -2.948605 1.499896 0.412266
O -2.508558 -0.794894 -0.307668
C -1.803356 -1.994091 0.21534
H -2.317745 -2.869642 -0.199177
H -0.731698 -2.01183 -0.045102
H -1.86926 -1.993139 1.307665
C 2.573554 -0.327309 -0.138636
O 3.708452 -0.092701 -0.643059
O 1.832863 -1.368078 -0.219486
21
G: 25 x 25 i: 10 j: 8 E: 0.6933913396496791
C -1.409001 0.296486 -0.625765
H -0.787958 -0.01122 -1.480434
H 0.778311 1.409487 -0.788335
C -0.456834 0.5445 0.56253
O -0.731199 0.209999 1.727445
N 0.682806 1.248143 0.215096
C 1.948694 0.705624 0.792044
H 1.681696 0.297553 1.768702
H 2.711566 1.483105 0.872076
C -2.201562 1.572494 -0.927526
H -1.529666 2.397649 -1.18624
H -2.899421 1.387931 -1.750794
H -2.773558 1.833697 -0.032025
O -2.513755 -0.58765 -0.315385
C -2.051657 -1.899365 0.205631
H -2.695332 -2.663747 -0.247604
H -0.993413 -2.072001 -0.041159
H -2.152005 -1.906759 1.294549
C 2.416282 -0.432066 -0.226183
O 3.541786 -0.269851 -0.774667
O 1.503744 -1.30484 -0.462242
21
G: 25 x 25 i: 11 j: 8 E: 0.6823981258839922
C -1.307051 0.346428 -0.582249
H -0.682097 -0.058018 -1.39153
H 0.817122 1.560342 -0.512634
C -0.394254 0.425439 0.651959
O -0.671225 -0.087125 1.747287
N 0.728806 1.228367 0.450533
C 1.996144 0.552802 0.880396
H 1.761872 0.044172 1.817118
H 2.803204 1.278524 1.002383
C -1.876559 1.730853 -0.917718
H -1.080237 2.460089 -1.097207
H -2.514518 1.658891 -1.804683
H -2.487995 2.062521 -0.072979
O -2.557863 -0.346575 -0.334847
C -2.322023 -1.760874 0.047154
H -3.043702 -2.373039 -0.509537
H -1.291302 -2.059085 -0.188049
H -2.46913 -1.873305 1.124055
C 2.336561 -0.480138 -0.286882
O 3.434475 -0.31993 -0.887623
O 1.355644 -1.26971 -0.559395
21
G: 25 x 25 i: 12 j: 8 E: 0.7756560720554262
C -1.258675 0.413046 -0.526955
H -0.695944 0.009837 -1.381141
H 0.841915 1.636626 -0.135462
C -0.348284 0.215311 0.692284
O -0.62731 -0.529284 1.644452
N 0.745614 1.089985 0.723672
C 2.021975 0.338983 0.98359
H 1.80946 -0.339724 1.81104
H 2.835042 1.029015 1.219383
C -1.632883 1.89148 -0.717672
H -0.75646 2.524727 -0.882348
H -2.303521 1.977469 -1.57873
H -2.165846 2.234296 0.174259
O -2.607189 -0.092373 -0.31793
C -2.594348 -1.567974 -0.185708
H -3.397859 -1.966859 -0.819846
H -1.622221 -1.975411 -0.495232
H -2.751466 -1.844122 0.858872
C 2.321172 -0.456147 -0.368744
O 3.402915 -0.191027 -0.961702
O 1.323317 -1.177809 -0.751979
21
G: 25 x 25 i: 13 j: 8 E: 0.8467621181953291
C -1.272657 0.563702 -0.234902
H -0.826806 0.480168 -1.241106
H 0.847462 1.260725 0.873167
C -0.375104 -0.341646 0.625263
O -0.659948 -1.528056 0.879603
N 0.735129 0.290899 1.162594
C 2.012832 -0.463632 0.973973
H 1.769661 -1.517415 1.117444
H 2.773406 -0.119805 1.67873
C -1.301927 2.028553 0.230345
H -0.343319 2.530602 0.07133
H -2.067208 2.548527 -0.353321
H -1.573747 2.077916 1.28912
O -2.705657 0.300264 -0.101385
C -3.113537 -0.934373 -0.780371
H -4.197625 -1.010748 -0.634799
H -2.895888 -0.888982 -1.86045
H -2.596769 -1.790439 -0.346038
C 2.444251 -0.151876 -0.538269
O 3.556287 0.424944 -0.703244
O 1.50954 -0.423553 -1.373532
21
G: 25 x 25 i: 14 j: 8 E: 0.8958654643956834
C -1.259148 0.576599 -0.137375
H -0.950552 0.655087 -1.191915
H 0.812023 0.810641 1.297874
C -0.385097 -0.568672 0.403327
O -0.682096 -1.765231 0.207492
N 0.695931 -0.194174 1.186493
C 1.983011 -0.831937 0.771083
H 1.744813 -1.864452 0.511606
H 2.722824 -0.771512 1.572453
C -1.034934 1.930577 0.546585
H -0.054019 2.33582 0.281131
H -1.808176 2.61718 0.190059
H -1.126916 1.834356 1.63368
O -2.69372 0.430957 0.137475
C -3.327763 -0.566945 -0.728767
H -4.382069 -0.598633 -0.429358
H -3.264115 -0.2743 -1.791231
H -2.848954 -1.538082 -0.599528
C 2.448434 0.01509 -0.50888
O 3.559277 0.610762 -0.421417
O 1.533615 0.076617 -1.405558
21
G: 25 x 25 i: 15 j: 8 E: 0.8698958870518254
C -1.264312 0.566033 -0.140946
H -1.16261 0.669821 -1.231673
H 0.750299 0.350568 1.42635
C -0.446336 -0.703122 0.169925
O -0.78031 -1.799388 -0.331134
N 0.622726 -0.583374 1.042371
C 1.908253 -1.106659 0.487033
H 1.649419 -1.972681 -0.124387
H 2.606031 -1.367996 1.285679
C -0.715447 1.848533 0.474714
H 0.263309 2.014781 0.013112
H -1.392075 2.672003 0.225962
H -0.648581 1.778587 1.566965
O -2.645369 0.552291 0.369802
C -3.513935 -0.321833 -0.419068
H -4.491435 -0.305192 0.07686
H -3.628474 0.051707 -1.452398
H -3.109556 -1.334856 -0.463843
C 2.474038 0.113406 -0.38292
O 3.595278 0.582129 -0.042934
O 1.59928 0.558558 -1.21469
21
G: 25 x 25 i: 16 j: 8 E: 0.8309211669111392
C -1.350316 0.581563 -0.261294
H -1.454579 0.624388 -1.356484
H 0.626934 0.329141 1.345506
C -0.488067 -0.675992 -0.01787
O -0.773927 -1.744031 -0.605977
N 0.521164 -0.585288 0.912695
C 1.836708 -1.139771 0.484106
H 1.615543 -1.956488 -0.205385
H 2.421316 -1.479765 1.341765
C -0.696355 1.879203 0.193359
H 0.273329 1.927534 -0.319713
H -1.330172 2.724882 -0.092024
H -0.578998 1.899445 1.283807
O -2.631961 0.59485 0.471669
C -3.582007 -0.368334 -0.083539
H -4.447253 -0.363162 0.588819
H -3.909378 -0.072919 -1.096263
H -3.142929 -1.36715 -0.150841
C 2.562115 0.093966 -0.239187
O 3.653916 0.480451 0.262471
O 1.825168 0.619643 -1.150851
21
G: 25 x 25 i: 17 j: 8 E: 0.7767660249228356
C -1.433521 0.590092 -0.365727
H -1.720453 0.588792 -1.427901
H 0.490038 0.290049 1.27522
C -0.525434 -0.649744 -0.207461
O -0.752329 -1.678091 -0.884827
N 0.423682 -0.595193 0.779055
C 1.761741 -1.159317 0.457467
H 1.595397 -1.922426 -0.305461
H 2.240286 -1.573996 1.347514
C -0.70758 1.891022 -0.04467
H 0.26412 1.855152 -0.561007
H -1.303661 2.747905 -0.374875
H -0.565449 1.982182 1.039552
O -2.577708 0.620307 0.569927
C -3.555782 -0.413184 0.235746
H -4.278639 -0.428548 1.058581
H -4.082691 -0.181052 -0.706298
H -3.08358 -1.394249 0.118576
C 2.605434 0.084786 -0.103162
O 3.646585 0.392714 0.540889
O 2.009667 0.682647 -1.069795
21
G: 25 x 25 i: 18 j: 8 E: 0.7406635493334761
C -1.476458 0.595019 -0.436691
H -1.893624 0.575707 -1.453504
H 0.3322 0.19799 1.280021
C -0.529976 -0.62262 -0.363558
O -0.670662 -1.584248 -1.149243
N 0.330633 -0.640137 0.70307
C 1.694892 -1.175229 0.457388
H 1.590784 -1.911553 -0.342071
H 2.112405 -1.61752 1.364855
C -0.716455 1.897704 -0.195458
H 0.261294 1.81885 -0.697468
H -1.292074 2.755612 -0.558165
H -0.567298 2.029031 0.883691
O -2.48447 0.6237 0.645088
C -3.445728 -0.462625 0.478498
H -4.037436 -0.497637 1.399325
H -4.117141 -0.282693 -0.378758
H -2.948391 -1.426068 0.311203
C 2.570085 0.084454 -0.006066
O 3.56201 0.377489 0.717833
O 2.051459 0.700438 -1.005589
21
G: 25 x 25 i: 19 j: 8 E: 0.7000484989912366
C -1.555077 0.626339 -0.481829
H -2.102493 0.646641 -1.434808
H 0.10283 -0.036937 1.244082
C -0.571331 -0.560149 -0.596671
O -0.573556 -1.316075 -1.586228
N 0.208234 -0.738759 0.514686
C 1.597384 -1.21849 0.320273
H 1.57966 -1.821542 -0.589944
H 1.935586 -1.796408 1.183703
C -0.758567 1.919525 -0.261233
H 0.239134 1.817047 -0.721099
H -1.301313 2.789213 -0.646164
H -0.630707 2.05332 0.819985
O -2.409383 0.609357 0.721565
C -3.151923 -0.636995 0.830701
H -3.777024 -0.543333 1.725099
H -3.796769 -0.816494 -0.045559
H -2.483951 -1.502354 0.940558
C 2.507515 0.085136 0.129466
O 3.425566 0.257756 0.978948
O 2.103549 0.835207 -0.829646
21
G: 25 x 25 i: 20 j: 8 E: 0.6218992998456088
C -1.631625 0.67013 -0.380066
H -2.335959 0.80381 -1.212886
H -0.043787 -0.401086 1.120185
C -0.598704 -0.384167 -0.824425
O -0.520481 -0.788052 -1.998452
N 0.145638 -0.848652 0.225159
C 1.552582 -1.239123 -0.016115
H 1.597617 -1.554433 -1.06103
H 1.856338 -2.040315 0.662137
C -0.865123 1.969402 -0.045349
H 0.174811 1.901741 -0.411957
H -1.375093 2.850611 -0.448235
H -0.84083 2.052622 1.047397
O -2.251264 0.385736 0.929675
C -2.912944 -0.911763 0.943563
H -3.368771 -1.011913 1.934161
H -3.700264 -0.985065 0.175175
H -2.195978 -1.727829 0.785516
C 2.453253 0.061517 0.222485
O 3.321517 -0.018049 1.135819
O 2.103705 1.052421 -0.512934
21
G: 25 x 25 i: 21 j: 8 E: 0.49732922677321767
C -1.828494 0.313027 0.418424
H -2.795857 0.812954 0.265533
H 0.106372 -0.862956 -0.325456
C -0.776256 0.924367 -0.529799
O -0.855993 2.100785 -0.930677
N 0.213023 0.028823 -0.808631
C 1.616228 0.476018 -0.9731
H 1.610573 1.56614 -0.877955
H 2.023589 0.172457 -1.940668
C -1.278715 0.541653 1.839272
H -0.189979 0.364102 1.85198
H -1.458416 1.58332 2.126655
H -1.79799 -0.12691 2.534153
O -1.87323 -1.156183 0.402402
C -2.331324 -1.664564 -0.887498
H -2.367989 -2.753798 -0.790954
H -3.335709 -1.287744 -1.141288
H -1.637052 -1.388926 -1.691078
C 2.456094 -0.229224 0.194233
O 3.387005 -0.995614 -0.180193
O 1.99298 -0.004997 1.368506
21
G: 25 x 25 i: 22 j: 8 E: 0.48248905623222527
C -1.813864 0.405831 0.250728
H -2.773966 0.817874 -0.089466
H 0.030496 -1.008778 -0.286017
C -0.676887 0.806348 -0.710391
O -0.641181 1.935191 -1.234204
N 0.20807 -0.214277 -0.902335
C 1.64282 0.10547 -1.101917
H 1.685071 1.167327 -1.35905
H 2.07739 -0.513241 -1.89058
C -1.369489 0.999413 1.602577
H -0.290933 0.809737 1.730168
H -1.523863 2.082922 1.579395
H -1.958867 0.551248 2.409241
O -1.827437 -1.017209 0.621335
C -2.331557 -1.848215 -0.473205
H -2.322628 -2.878175 -0.104623
H -3.360543 -1.569079 -0.751389
H -1.688992 -1.766807 -1.358876
C 2.383901 -0.198528 0.285868
O 3.292075 -1.075866 0.244568
O 1.884143 0.431009 1.282748
21
G: 25 x 25 i: 23 j: 8 E: 0.5502252430123917
C -1.785693 0.417126 0.125183
H -2.718548 0.756022 -0.346051
H 0.014942 -1.085126 -0.389631
C -0.55774 0.782185 -0.734616
O -0.42561 1.929911 -1.195492
N 0.24001 -0.297116 -1.001436
C 1.699421 -0.037221 -1.119561
H 1.798146 0.990071 -1.478762
H 2.165629 -0.752898 -1.800241
C -1.504834 1.14701 1.453337
H -0.461331 0.935493 1.728682
H -1.598958 2.223729 1.284519
H -2.210338 0.813052 2.220861
O -1.791708 -0.962818 0.637752
C -2.321022 -1.898685 -0.358539
H -2.288417 -2.889366 0.104328
H -3.361459 -1.654861 -0.626432
H -1.709008 -1.896099 -1.26985
C 2.308063 -0.20004 0.354447
O 3.184898 -1.098944 0.496646
O 1.739933 0.554046 1.218733
21
G: 25 x 25 i: 24 j: 8 E: 0.6870488801068859
C -1.705147 0.480197 0.071467
H -2.624892 0.704761 -0.485984
H -0.02672 -1.220995 -0.229883
C -0.468556 0.600821 -0.84514
O -0.228792 1.674666 -1.423544
N 0.229102 -0.574714 -0.981434
C 1.70827 -0.409392 -1.086107
H 1.76833 0.525488 -1.647679
H 2.251321 -1.22071 -1.575321
C -1.44406 1.490173 1.203826
H -0.448829 1.253264 1.600604
H -1.41229 2.494008 0.772526
H -2.22023 1.416229 1.971692
O -1.792001 -0.825501 0.749481
C -2.517558 -1.805185 -0.063255
H -2.523705 -2.73513 0.512115
H -3.555028 -1.485527 -0.249298
H -2.021247 -1.973384 -1.028535
C 2.22561 -0.206106 0.418341
O 3.248474 -0.87424 0.75155
O 1.574596 0.695317 1.051889
21
G: 25 x 25 i: 24 j: 9 E: 0.5996603233470523
C -1.659893 0.561209 0.055406
H -2.593888 0.701484 -0.506682
H -0.026328 -1.178581 0.24682
C -0.501584 0.318039 -0.936468
O -0.235678 1.170552 -1.801629
N 0.186956 -0.847458 -0.698725
C 1.653701 -0.756756 -0.926067
H 1.793941 -0.108314 -1.79556
H 2.087729 -1.744811 -1.091612
C -1.269806 1.804373 0.873805
H -0.27955 1.589492 1.292687
H -1.181425 2.654305 0.192061
H -2.012104 2.00161 1.653585
O -1.86696 -0.61695 0.916386
C -2.71024 -1.620063 0.259519
H -2.799934 -2.452486 0.963829
H -3.713151 -1.221141 0.037715
H -2.256104 -1.975741 -0.675084
C 2.296628 -0.090964 0.385585
O 3.337119 -0.651147 0.833165
O 1.617929 0.893966 0.839907
21
G: 25 x 25 i: 23 j: 9 E: 0.46779079312545946
C -1.672001 0.619559 0.018725
H -2.610988 0.796188 -0.523731
H -0.003292 -0.9866 0.55831
C -0.60668 0.108199 -0.972283
O -0.407422 0.694881 -2.0516
N 0.166153 -0.889753 -0.445844
C 1.608534 -0.875918 -0.791605
H 1.687589 -0.373871 -1.760589
H 2.014729 -1.888465 -0.839045
C -1.089774 1.906051 0.635947
H -0.071512 1.6621 0.97137
H -1.024369 2.669222 -0.145088
H -1.723475 2.248953 1.460034
O -1.967364 -0.395392 1.041696
C -2.796167 -1.475859 0.499273
H -2.964359 -2.175415 1.323382
H -3.765947 -1.09691 0.138867
H -2.285814 -1.990509 -0.324659
C 2.375659 -0.04769 0.347148
O 3.437612 -0.575354 0.782606
O 1.770542 1.020557 0.707151
21
G: 25 x 25 i: 22 j: 9 E: 0.38562358636227145
C -1.704473 0.549711 -0.333527
H -2.658481 0.447361 -0.868712
H 0.12528 -0.232666 0.934469
C -0.744303 -0.552395 -0.823642
O -0.697365 -0.897484 -2.019521
N 0.193312 -0.850755 0.121891
C 1.598097 -1.067114 -0.302663
H 1.601439 -1.07953 -1.398071
H 2.000987 -2.003931 0.088696
C -0.994517 1.88897 -0.62098
H 0.028225 1.815984 -0.21657
H -0.941187 2.038004 -1.704118
H -1.548053 2.708732 -0.151627
O -2.005249 0.388415 1.093648
C -2.767695 -0.834922 1.347991
H -2.957768 -0.857407 2.42503
H -3.728521 -0.832852 0.808095
H -2.194957 -1.723122 1.054842
C 2.460117 0.147367 0.285173
O 3.550798 -0.169597 0.83447
O 1.881378 1.289292 0.19898
21
G: 25 x 25 i: 21 j: 9 E: 0.38139319379479275
C -1.700549 0.465328 -0.503548
H -2.624234 0.222403 -1.048714
H 0.243794 0.221638 0.831761
C -0.808286 -0.793639 -0.540797
O -0.868668 -1.631679 -1.460498
N 0.230934 -0.672294 0.333146
C 1.599669 -1.074381 -0.065804
H 1.572941 -1.344764 -1.128294
H 1.972764 -1.915351 0.523026
C -0.917053 1.620647 -1.156029
H 0.094333 1.659273 -0.721458
H -0.835014 1.43495 -2.232476
H -1.449839 2.561367 -0.981756
O -2.113416 0.769729 0.870339
C -2.808199 -0.355417 1.488682
H -3.106089 -0.018326 2.486105
H -3.707273 -0.644642 0.919481
H -2.147687 -1.22653 1.575729
C 2.531112 0.196844 0.212485
O 3.624178 -0.029806 0.796571
O 1.981606 1.316725 -0.102083
21
G: 25 x 25 i: 20 j: 9 E: 0.4687245522000012
C -1.697774 0.516498 -0.501745
H -2.562904 0.273135 -1.137385
H 0.381939 0.340317 0.69116
C -0.831303 -0.766407 -0.494385
O -0.985823 -1.689638 -1.317128
N 0.286009 -0.585914 0.260104
C 1.62057 -1.039495 -0.187145
H 1.588648 -1.215317 -1.270336
H 1.951613 -1.945332 0.325132
C -0.890497 1.701371 -1.060532
H 0.110203 1.736616 -0.606229
H -0.775326 1.576363 -2.143275
H -1.436446 2.628766 -0.857879
O -2.26841 0.769313 0.826624
C -2.860121 -0.430154 1.402583
H -3.300439 -0.123515 2.356596
H -3.649674 -0.853366 0.758833
H -2.100749 -1.201916 1.579208
C 2.6051 0.161438 0.204669
O 3.687561 -0.151079 0.76431
O 2.081075 1.324671 0.014042
21
G: 25 x 25 i: 19 j: 9 E: 0.6142847075116151
C -1.714379 0.578024 -0.4639
H -2.494396 0.342527 -1.20425
H 0.535647 0.444874 0.543927
C -0.820882 -0.694782 -0.487775
O -1.062334 -1.658818 -1.242321
N 0.355568 -0.489812 0.150356
C 1.659252 -0.99451 -0.32305
H 1.647557 -1.073825 -1.418752
H 1.929052 -1.957134 0.115627
C -0.943075 1.850077 -0.853339
H 0.049167 1.891107 -0.387001
H -0.799986 1.860599 -1.940217
H -1.536749 2.722557 -0.561717
O -2.462176 0.68842 0.798493
C -2.897402 -0.610132 1.289982
H -3.504668 -0.409378 2.178659
H -3.5058 -1.154825 0.548948
H -2.042036 -1.2411 1.563857
C 2.690636 0.120886 0.195606
O 3.745195 -0.281792 0.747481
O 2.202856 1.315426 0.116757
21
G: 25 x 25 i: 18 j: 9 E: 0.5650558623510733
C -1.842741 0.633622 -0.293694
H -2.659021 0.407557 -0.994325
H 0.841208 0.960265 -0.095727
C -0.732275 -0.373538 -0.668651
O -1.058491 -1.479324 -1.178832
N 0.517761 0.031008 -0.426288
C 1.737725 -0.751814 -0.66292
H 2.024491 -0.721246 -1.724464
H 1.604949 -1.787106 -0.344253
C -1.450266 2.108736 -0.32754
H -0.70967 2.298291 0.453946
H -1.025868 2.376706 -1.299689
H -2.329364 2.727823 -0.122224
O -2.363848 0.248923 1.032578
C -2.959956 -1.087672 1.005005
H -3.102456 -1.379767 2.049823
H -3.936111 -1.081412 0.489755
H -2.311925 -1.805203 0.490185
C 2.822682 -0.005242 0.250984
O 3.577363 -0.71304 0.964509
O 2.661031 1.27375 0.214481
21
G: 25 x 25 i: 17 j: 9 E: 0.5303220655896439
C -1.776565 0.677838 -0.31295
H -2.489218 0.531633 -1.138355
H 0.931814 0.924418 -0.212873
C -0.70816 -0.419511 -0.520337
O -1.077437 -1.575537 -0.867616
N 0.560732 -0.03528 -0.359365
C 1.745671 -0.890043 -0.511993
H 1.976945 -1.054059 -1.574831
H 1.605829 -1.849066 -0.010581
C -1.272601 2.116749 -0.245397
H -0.647139 2.231949 0.644001
H -0.685771 2.367866 -1.133957
H -2.124955 2.797612 -0.158322
O -2.543627 0.325135 0.900256
C -3.28829 -0.925136 0.733994
H -3.666245 -1.184783 1.728007
H -4.13977 -0.795979 0.042613
H -2.643557 -1.715475 0.339102
C 2.892311 -0.030823 0.206366
O 3.665618 -0.624945 0.998663
O 2.755789 1.227647 -0.044722
21
G: 25 x 25 i: 16 j: 9 E: 0.5176637592558109
C -1.7334 0.690304 -0.291816
H -2.322949 0.596444 -1.218248
H 0.981278 0.89592 -0.286712
C -0.687679 -0.449325 -0.36695
O -1.068851 -1.634447 -0.575369
N 0.591129 -0.067409 -0.313947
C 1.759258 -0.951918 -0.422753
H 1.941243 -1.233151 -1.470503
H 1.63224 -1.848818 0.185403
C -1.190969 2.107114 -0.121205
H -0.647809 2.170553 0.82554
H -0.516963 2.371572 -0.941309
H -2.029516 2.809432 -0.091364
O -2.694382 0.357685 0.778727
C -3.490577 -0.831985 0.466821
H -4.069947 -1.048597 1.370494
H -4.184882 -0.641066 -0.371377
H -2.841487 -1.668218 0.197606
C 2.944074 -0.036268 0.148591
O 3.745764 -0.5507 0.967738
O 2.807049 1.189994 -0.230849
21
G: 25 x 25 i: 15 j: 9 E: 0.5184806181696331
C -1.70178 0.695079 -0.245647
H -2.145769 0.653817 -1.255672
H 1.005513 0.866141 -0.344813
C -0.672316 -0.465919 -0.2027
O -1.054243 -1.665912 -0.270248
N 0.609376 -0.091154 -0.259296
C 1.767173 -0.992335 -0.341934
H 1.890517 -1.378394 -1.364579
H 1.671648 -1.822887 0.358995
C -1.157492 2.093261 0.048213
H -0.695535 2.099854 1.038951
H -0.414235 2.394535 -0.695445
H -1.99089 2.802119 0.040198
O -2.823502 0.365557 0.649863
C -3.612297 -0.774691 0.174826
H -4.36611 -0.957734 0.948277
H -4.123557 -0.539626 -0.776757
H -2.967933 -1.642595 0.027045
C 2.983652 -0.034016 0.07067
O 3.827329 -0.470428 0.892887
O 2.829052 1.150105 -0.420214
21
G: 25 x 25 i: 14 j: 9 E: 0.5154609694836836
C -1.67664 0.702532 -0.189408
H -1.952875 0.725437 -1.259453
H 1.007433 0.828143 -0.41183
C -0.663476 -0.467436 -0.037149
O -1.045189 -1.664315 0.049369
N 0.615812 -0.110346 -0.196774
C 1.767314 -1.0221 -0.248625
H 1.828267 -1.522299 -1.226505
H 1.718361 -1.767295 0.546635
C -1.164716 2.075602 0.258252
H -0.81361 2.011037 1.291247
H -0.344823 2.425861 -0.374296
H -1.993561 2.787922 0.204935
O -2.925022 0.357654 0.50057
C -3.640679 -0.75289 -0.134405
H -4.536887 -0.915906 0.474482
H -3.950699 -0.494662 -1.163794
H -3.00563 -1.638687 -0.158387
C 3.005009 -0.02946 -0.021212
O 3.898354 -0.3751 0.791693
O 2.818415 1.093684 -0.630424
21
G: 25 x 25 i: 13 j: 9 E: 0.49367310351772176
C -1.655412 0.715011 -0.141081
H -1.746043 0.814028 -1.238268
H 0.988811 0.766823 -0.516033
C -0.659428 -0.453041 0.117422
O -1.044259 -1.620596 0.380347
N 0.613655 -0.126742 -0.137757
C 1.765703 -1.03915 -0.126262
H 1.775647 -1.674497 -1.024301
H 1.770109 -1.662138 0.769233
C -1.221915 2.048388 0.483893
H -1.097786 1.908612 1.560995
H -0.281484 2.409318 0.062253
H -2.008485 2.789495 0.310251
O -2.991743 0.341841 0.319749
C -3.569809 -0.770884 -0.439162
H -4.566385 -0.934604 -0.013994
H -3.677208 -0.517088 -1.509538
H -2.943779 -1.656855 -0.33156
C 3.006329 -0.023902 -0.1129
O 3.947468 -0.250384 0.687847
O 2.77581 1.002334 -0.86247
21
G: 25 x 25 i: 12 j: 9 E: 0.45778295845593675
C -1.63504 0.72967 -0.114884
H -1.577101 0.886207 -1.20685
H 0.94412 0.679951 -0.658494
C -0.659064 -0.43346 0.225784
O -1.045516 -1.537291 0.682064
N 0.593495 -0.166776 -0.165037
C 1.762138 -1.050291 -0.056988
H 1.783569 -1.781748 -0.878238
H 1.778874 -1.567213 0.903477
C -1.277372 2.020995 0.636374
H -1.350361 1.824608 1.709969
H -0.263332 2.35059 0.401476
H -1.9953 2.804247 0.372183
O -3.012689 0.337217 0.154263
C -3.445332 -0.812325 -0.643889
H -4.494138 -0.982246 -0.376091
H -3.384496 -0.601687 -1.726726
H -2.836202 -1.684178 -0.401838
C 2.984695 -0.017219 -0.164014
O 3.931945 -0.135872 0.652738
O 2.733729 0.912781 -1.023803
21
G: 25 x 25 i: 11 j: 9 E: 0.4428535889583145
C -1.624074 0.744336 -0.113122
H -1.441355 0.928674 -1.185939
H 0.892575 0.570055 -0.796211
C -0.656569 -0.390804 0.322129
O -1.03148 -1.395531 0.972949
N 0.564372 -0.217038 -0.199778
C 1.753122 -1.050781 0.024303
H 1.80109 -1.873209 -0.704126
H 1.765562 -1.448725 1.039918
C -1.372896 2.01806 0.706106
H -1.566238 1.789097 1.75838
H -0.337604 2.348276 0.591489
H -2.05995 2.807258 0.383611
O -3.0108 0.311712 -0.019233
C -3.277856 -0.908865 -0.780835
H -4.349763 -1.103502 -0.664645
H -3.053849 -0.779274 -1.854473
H -2.691385 -1.737984 -0.38024
C 2.956399 -0.012144 -0.195011
O 3.895353 -0.012476 0.640184
O 2.699621 0.79877 -1.165243
21
G: 25 x 25 i: 10 j: 9 E: 0.461252084991429
C -1.649935 0.74067 -0.187004
H -1.321372 0.899417 -1.227273
H 0.855994 0.410948 -0.886938
C -0.658677 -0.255928 0.467259
O -1.018005 -1.07895 1.343122
N 0.553103 -0.195382 -0.097981
C 1.749255 -0.951367 0.296545
H 1.768613 -1.937174 -0.19028
H 1.798902 -1.068915 1.380052
C -1.661405 2.061001 0.592337
H -1.967793 1.839155 1.618933
H -0.661276 2.503097 0.594869
H -2.382175 2.752815 0.144432
O -2.98449 0.162112 -0.284762
C -2.981069 -1.179975 -0.863504
H -4.033114 -1.478414 -0.930626
H -2.541536 -1.192622 -1.876005
H -2.430233 -1.869931 -0.219454
C 2.946613 -0.023315 -0.230897
O 3.914634 0.18489 0.543355
O 2.659558 0.502295 -1.372998
21
G: 25 x 25 i: 9 j: 9 E: 0.48515803164991667
C -1.696551 0.624953 -0.446951
H -1.267601 0.558447 -1.458319
H 0.830998 0.03311 -0.96753
C -0.666857 0.057195 0.558989
O -1.013154 -0.278166 1.717858
N 0.544054 -0.120782 0.020178
C 1.743945 -0.617843 0.705922
H 1.742719 -1.716582 0.749818
H 1.820574 -0.204868 1.712918
C -2.042295 2.069158 -0.071712
H -2.387299 2.053376 0.966245
H -1.158516 2.708228 -0.158271
H -2.843836 2.440413 -0.718107
O -2.898657 -0.209993 -0.479358
C -2.601082 -1.63969 -0.47123
H -3.568137 -2.14674 -0.561826
H -1.960335 -1.937688 -1.3184
H -2.112096 -1.924134 0.465217
C 2.934257 -0.077917 -0.223544
O 3.922938 0.457223 0.33843
O 2.622204 -0.158216 -1.47216
21
G: 25 x 25 i: 8 j: 9 E: 0.49631149332708446
C -1.757255 0.366677 -0.662801
H -1.276106 0.049256 -1.598793
H 0.796018 -0.346319 -0.881105
C -0.692165 0.405502 0.457615
O -1.02324 0.665762 1.640475
N 0.519826 0.009318 0.056428
C 1.721876 -0.105327 0.892024
H 1.705717 -1.038604 1.473428
H 1.817989 0.749403 1.563363
C -2.43071 1.73373 -0.789444
H -2.762749 2.006989 0.216172
H -1.724099 2.482458 -1.161126
H -3.292352 1.662993 -1.460197
O -2.750578 -0.67781 -0.369284
C -2.163201 -1.865711 0.244294
H -2.98066 -2.589175 0.338015
H -1.362359 -2.304946 -0.37285
H -1.756455 -1.629599 1.233545
C 2.906204 -0.116896 -0.189154
O 3.909213 0.608089 0.029308
O 2.575578 -0.797982 -1.233081
21
G: 25 x 25 i: 7 j: 9 E: 0.4980843974499294
C -1.837404 0.132404 -0.6986
H -1.346277 -0.273747 -1.593599
H 0.736339 -0.504444 -0.748197
C -0.749898 0.636073 0.279674
O -1.062473 1.273401 1.314023
N 0.472067 0.168204 6e-05
C 1.675875 0.33446 0.823978
H 1.636582 -0.319234 1.707836
H 1.803259 1.372275 1.136084
C -2.828218 1.246273 -1.023477
H -3.120467 1.68658 -0.066172
H -2.36149 2.01314 -1.65027
H -3.702838 0.828986 -1.530965
O -2.522707 -1.024131 -0.088485
C -1.615769 -1.871857 0.681834
H -2.211083 -2.735938 0.996533
H -0.755799 -2.218486 0.088021
H -1.235848 -1.343394 1.564945
C 2.851428 -0.104956 -0.173587
O 3.875203 0.621468 -0.232618
O 2.494612 -1.11043 -0.898364
21
G: 25 x 25 i: 6 j: 9 E: 0.3356476795179333
C -1.937338 -0.171252 -0.4618
H -1.666986 -0.59052 -1.442682
H 0.540241 -0.244946 -0.917277
C -0.91899 0.91996 -0.062739
O -1.191247 1.795647 0.784409
N 0.331994 0.691393 -0.542484
C 1.526506 1.130385 0.216086
H 1.247802 1.26106 1.269242
H 1.941797 2.062228 -0.174071
C -3.363294 0.367029 -0.431355
H -3.479968 0.897707 0.51707
H -3.53185 1.069762 -1.254566
H -4.072174 -0.463059 -0.49409
O -1.749006 -1.26782 0.50432
C -0.505175 -2.026114 0.272492
H -0.431206 -2.721128 1.115974
H -0.574036 -2.606473 -0.663823
H 0.404923 -1.410275 0.210856
C 2.588337 -0.039273 0.011365
O 3.767958 0.287581 -0.273128
O 2.041948 -1.212722 0.030207
21
G: 25 x 25 i: 5 j: 9 E: 0.3376303018794715
C -1.976068 -0.186634 -0.418805
H -1.789887 -0.60055 -1.423158
H 0.538592 -0.353995 -0.790691
C -0.948666 0.937625 -0.140675
O -1.233137 1.936815 0.554306
N 0.318335 0.601006 -0.480129
C 1.496634 1.113135 0.248406
H 1.237008 1.252191 1.306282
H 1.860761 2.055496 -0.166784
C -3.406743 0.311371 -0.259828
H -3.462148 0.850834 0.688488
H -3.66475 1.003538 -1.068415
H -4.093713 -0.539137 -0.259165
O -1.666427 -1.289303 0.50816
C -0.471268 -2.069253 0.152458
H -0.427893 -2.871917 0.897186
H -0.583072 -2.521434 -0.84934
H 0.470387 -1.501618 0.158303
C 2.60804 -0.010143 0.044278
O 3.765838 0.365303 -0.267465
O 2.118077 -1.207447 0.094148
21
G: 25 x 25 i: 4 j: 9 E: 0.40594149268144974
C -2.005795 -0.182914 -0.371861
H -1.928138 -0.566631 -1.404496
H 0.543316 -0.441457 -0.627293
C -0.95385 0.946711 -0.200273
O -1.25107 2.04827 0.312364
N 0.315792 0.531272 -0.392647
C 1.489888 1.106927 0.285938
H 1.26187 1.271974 1.348176
H 1.813352 2.045046 -0.1701
C -3.412454 0.315853 -0.06624
H -3.406438 0.759757 0.931421
H -3.704058 1.0901 -0.781953
H -4.115361 -0.52097 -0.104783
O -1.627357 -1.327607 0.470218
C -0.496886 -2.135266 -0.001999
H -0.524561 -3.042797 0.612094
H -0.63103 -2.424348 -1.060348
H 0.484 -1.649819 0.096929
C 2.628614 0.007541 0.083981
O 3.765189 0.406346 -0.273029
O 2.175664 -1.201117 0.181898
21
G: 25 x 25 i: 3 j: 9 E: 0.4980185186595918
C -2.015895 -0.154991 -0.326902
H -2.035336 -0.479782 -1.383296
H 0.543871 -0.520164 -0.297138
C -0.930705 0.960278 -0.211886
O -1.240836 2.144823 0.048772
N 0.322502 0.478746 -0.220385
C 1.524974 1.120688 0.327096
H 1.383919 1.358617 1.391428
H 1.799422 2.024159 -0.220985
C -3.382171 0.366934 0.106952
H -3.340976 0.577824 1.178927
H -3.606156 1.298296 -0.416506
H -4.151854 -0.386259 -0.085775
O -1.626952 -1.360067 0.416184
C -0.612341 -2.226462 -0.189711
H -0.767591 -3.213525 0.261781
H -0.757489 -2.315494 -1.280731
H 0.419145 -1.898703 -0.000352
C 2.655263 0.005818 0.114567
O 3.758406 0.378129 -0.356607
O 2.211982 -1.191607 0.325982
21
G: 25 x 25 i: 2 j: 9 E: 0.42147985323754256
C -1.877521 -0.161194 -0.298279
H -1.725415 -0.404665 -1.361857
H 0.447326 -0.409065 0.688393
C -0.89787 1.015872 -0.007074
O -1.250321 2.201751 -0.207604
N 0.287711 0.569645 0.419454
C 1.599764 1.216717 0.427249
H 1.858862 1.610025 1.42059
H 1.646699 2.011307 -0.319178
C -3.326299 0.257461 -0.044544
H -3.489111 0.278879 1.037968
H -3.471707 1.263215 -0.445386
H -4.028231 -0.45162 -0.495086
O -1.475085 -1.366782 0.438864
C -0.62385 -2.284104 -0.343539
H -0.578895 -3.20715 0.244433
H -1.079347 -2.505151 -1.323276
H 0.398063 -1.904104 -0.494068
C 2.56685 -0.003544 0.014881
O 3.446404 0.211535 -0.854029
O 2.199169 -1.111059 0.575159
21
G: 25 x 25 i: 1 j: 9 E: 0.3111873006546375
C -1.877411 -0.171089 -0.269317
H -1.825098 -0.377675 -1.351041
H 0.371767 -0.357869 0.87549
C -0.87822 0.999823 -0.051577
O -1.182849 2.155986 -0.427854
N 0.249365 0.607171 0.552626
C 1.576857 1.225163 0.475814
H 1.88857 1.630549 1.448188
H 1.582279 2.008348 -0.28358
C -3.297172 0.255174 0.11444
H -3.367203 0.273372 1.207059
H -3.465235 1.262041 -0.275816
H -4.041242 -0.445813 -0.277259
O -1.429723 -1.399256 0.386672
C -0.560877 -2.244947 -0.462948
H -0.534126 -3.219786 0.035611
H -0.998652 -2.366775 -1.467469
H 0.463472 -1.850558 -0.54608
C 2.5137 -0.003139 0.034737
O 3.348439 0.195119 -0.881544
O 2.178964 -1.098342 0.637678
21
G: 25 x 25 i: 0 j: 9 E: 0.2363731574951089
C -1.881139 -0.105446 -0.316901
H -1.929468 -0.225763 -1.411658
H 0.325721 -0.393705 0.867126
C -0.840124 1.015993 -0.067318
O -1.052031 2.164578 -0.520118
N 0.248689 0.587329 0.584206
C 1.597689 1.16191 0.50062
H 1.858748 1.436483 1.531354
H 1.698602 2.0212 -0.163206
C -3.246649 0.361064 0.20043
H -3.223652 0.352757 1.294835
H -3.40948 1.382239 -0.154216
H -4.046184 -0.302368 -0.143798
O -1.584897 -1.375468 0.332164
C -0.674811 -2.248981 -0.446644
H -0.831739 -3.256251 -0.047368
H -0.948025 -2.239273 -1.513618
H 0.379997 -1.96386 -0.320591
C 2.49656 -0.065214 -0.003052
O 3.504986 0.195733 -0.70785
O 2.091379 -1.189683 0.491916
21
G: 25 x 25 i: 0 j: 10 E: 0.138220017124695
C -1.852342 -0.040358 -0.376006
H -1.86254 -0.104505 -1.477121
H 0.39392 -0.469998 0.752921
C -0.807025 1.04154 0.000102
O -0.967151 2.220293 -0.395727
N 0.299851 0.535775 0.556364
C 1.646566 1.104821 0.485429
H 1.983842 1.48128 1.461468
H 1.677842 1.912822 -0.248167
C -3.218479 0.461438 0.10655
H -3.240166 0.409413 1.199991
H -3.326192 1.501436 -0.212666
H -4.028765 -0.155364 -0.295255
O -1.772337 -1.315199 0.324295
C -0.873213 -2.297496 -0.324515
H -1.174693 -3.27165 0.075069
H -1.020223 -2.295664 -1.417067
H 0.182685 -2.113277 -0.079277
C 2.570395 -0.115503 0.009301
O 3.583142 0.164174 -0.677486
O 2.096337 -1.265715 0.366467
21
G: 25 x 25 i: 1 j: 10 E: 0.21074519202375086
C -1.816473 -0.019528 -0.385756
H -1.682998 -0.140885 -1.473783
H 0.466428 -0.499613 0.668369
C -0.791637 1.051706 0.082271
O -0.975183 2.261879 -0.191028
N 0.354809 0.511064 0.505633
C 1.697097 1.085236 0.450287
H 2.033607 1.453016 1.43022
H 1.742359 1.89737 -0.278302
C -3.220367 0.524922 -0.106366
H -3.397661 0.480177 0.973215
H -3.250819 1.566525 -0.435369
H -3.984714 -0.070024 -0.61648
O -1.853163 -1.263351 0.381646
C -1.036994 -2.348662 -0.203511
H -1.371602 -3.262908 0.29834
H -1.229414 -2.441664 -1.285342
H 0.039018 -2.210079 -0.023694
C 2.615261 -0.141687 -0.0305
O 3.633284 0.133967 -0.710675
O 2.128912 -1.290155 0.315663
21
G: 25 x 25 i: 2 j: 10 E: 0.31293272127004457
C -1.813523 0.003792 -0.401714
H -1.603911 -0.181395 -1.467688
H 0.545394 -0.539391 0.462631
C -0.776527 1.047469 0.1143
O -0.989321 2.278913 0.011938
N 0.40889 0.477519 0.343448
C 1.743888 1.061571 0.389462
H 2.013581 1.42134 1.393362
H 1.853139 1.877003 -0.329155
C -3.211956 0.602415 -0.242837
H -3.469392 0.585226 0.821153
H -3.186112 1.639469 -0.584771
H -3.956191 0.022007 -0.797467
O -1.953171 -1.201155 0.426211
C -1.23507 -2.376047 -0.09933
H -1.614635 -3.227877 0.475366
H -1.464047 -2.534154 -1.166658
H -0.145665 -2.310928 0.034438
C 2.687277 -0.170426 -0.037635
O 3.75088 0.101802 -0.64515
O 2.166747 -1.317882 0.259647
21
G: 25 x 25 i: 3 j: 10 E: 0.3669615479539061
C -1.922765 -0.009855 -0.454044
H -1.839161 -0.263635 -1.526646
H 0.652888 -0.523281 -0.439663
C -0.781534 0.97817 -0.061093
O -1.037313 2.163748 0.253481
N 0.446952 0.458953 -0.197352
C 1.698295 0.99581 0.338035
H 1.618227 1.17775 1.419497
H 2.013339 1.918258 -0.156649
C -3.257747 0.674258 -0.174913
H -3.341311 0.829241 0.904046
H -3.283293 1.650081 -0.663315
H -4.083264 0.042675 -0.516193
O -2.087022 -1.177791 0.41999
C -1.232639 -2.336845 0.152555
H -1.755554 -3.19148 0.598251
H -1.127658 -2.518415 -0.931509
H -0.228847 -2.255694 0.58938
C 2.772667 -0.149531 0.019882
O 3.955659 0.216242 -0.185552
O 2.242216 -1.325976 -0.090202
21
G: 25 x 25 i: 4 j: 10 E: 0.28234855365008116
C -1.901287 -0.025081 -0.495989
H -1.736888 -0.350424 -1.538156
H 0.678492 -0.420322 -0.716895
C -0.776415 0.94789 -0.048223
O -1.048718 2.038699 0.50262
N 0.465637 0.520032 -0.345301
C 1.690376 0.980766 0.317406
H 1.523242 1.085029 1.398495
H 2.057999 1.931282 -0.078369
C -3.243193 0.6822 -0.35231
H -3.317113 1.067237 0.666768
H -3.300508 1.530007 -1.041127
H -4.054207 -0.024033 -0.550663
O -2.134726 -1.129706 0.447087
C -1.233557 -2.27995 0.325554
H -1.693401 -3.064825 0.937215
H -1.181057 -2.634513 -0.719659
H -0.208638 -2.092264 0.671043
C 2.768208 -0.153573 -0.004207
O 3.968065 0.203945 -0.092751
O 2.233857 -1.310551 -0.240073
21
G: 25 x 25 i: 5 j: 10 E: 0.21800949204953213
C -1.861583 -0.022106 -0.535649
H -1.612233 -0.397692 -1.540942
H 0.696349 -0.32868 -0.854613
C -0.752799 0.914847 0.003902
O -1.026631 1.895439 0.730976
N 0.48803 0.588315 -0.42038
C 1.709488 0.978543 0.299684
H 1.501463 1.047584 1.375802
H 2.119933 1.931339 -0.045197
C -3.187983 0.726978 -0.529505
H -3.281591 1.219061 0.441206
H -3.198555 1.495517 -1.309675
H -4.009137 0.022089 -0.684742
O -2.206231 -1.064648 0.44816
C -1.306909 -2.22674 0.440923
H -1.726968 -2.914081 1.183821
H -1.314474 -2.722917 -0.545834
H -0.26146 -1.999464 0.689591
C 2.760835 -0.17556 -0.028812
O 3.97408 0.143576 -0.063617
O 2.196804 -1.305208 -0.324271
21
G: 25 x 25 i: 6 j: 10 E: 0.21620627442825935
C -1.816457 -0.007495 -0.568653
H -1.507455 -0.408132 -1.545358
H 0.717185 -0.230919 -0.948344
C -0.713646 0.866364 0.070935
O -0.98375 1.720465 0.942187
N 0.515266 0.667825 -0.468383
C 1.743049 0.985876 0.285624
H 1.508247 1.040091 1.356309
H 2.201307 1.926936 -0.029421
C -3.095645 0.816066 -0.666564
H -3.226974 1.310643 0.299241
H -3.00767 1.579889 -1.446786
H -3.943122 0.158327 -0.877862
O -2.302711 -1.001512 0.406188
C -1.421207 -2.178141 0.505681
H -1.812938 -2.763435 1.344655
H -1.478915 -2.786592 -0.413139
H -0.361055 -1.940629 0.674502
C 2.749095 -0.206796 -0.045505
O 3.976054 0.056814 -0.049054
O 2.139581 -1.302791 -0.377349
21
G: 25 x 25 i: 7 j: 10 E: 0.2838004177156108
C -1.769056 0.018738 -0.593541
H -1.422559 -0.388184 -1.553839
H 0.733205 -0.098248 -1.037674
C -0.6627 0.80155 0.146334
O -0.920872 1.50008 1.14731
N 0.542233 0.763776 -0.489347
C 1.782795 0.993857 0.286013
H 1.530825 1.032662 1.352573
H 2.293449 1.91635 -0.001302
C -2.972308 0.943905 -0.761418
H -3.149066 1.400049 0.216492
H -2.763416 1.730032 -1.49489
H -3.845937 0.362921 -1.070194
O -2.404861 -0.934558 0.329775
C -1.563429 -2.134368 0.520795
H -1.933898 -2.619898 1.429731
H -1.678713 -2.825766 -0.330053
H -0.488787 -1.915608 0.619743
C 2.728482 -0.244361 -0.060049
O 3.967807 -0.045001 -0.042917
O 2.066247 -1.297604 -0.425913
21
G: 25 x 25 i: 8 j: 10 E: 0.4043145776995516
C -1.721639 0.0654 -0.611935
H -1.357476 -0.316753 -1.575734
H 0.729631 0.135352 -1.15317
C -0.603131 0.718583 0.226905
O -0.833755 1.194663 1.354179
N 0.56212 0.894223 -0.470753
C 1.822769 1.000093 0.308037
H 1.563445 1.007341 1.372371
H 2.39181 1.898785 0.058263
C -2.82791 1.107086 -0.79223
H -3.050629 1.493768 0.206345
H -2.494223 1.926325 -1.437582
H -3.719104 0.632806 -1.213876
O -2.4909 -0.863287 0.219535
C -1.706776 -2.095082 0.472061
H -2.040449 -2.486602 1.438527
H -1.909414 -2.842134 -0.311327
H -0.617684 -1.920969 0.490057
C 2.688522 -0.284601 -0.082167
O 3.9385 -0.156095 -0.054095
O 1.968435 -1.282325 -0.482447
21
G: 25 x 25 i: 9 j: 10 E: 0.5132386691420834
C -1.690031 0.187027 -0.593016
H -1.379389 -0.048812 -1.622864
H 0.626115 0.753089 -1.367711
C -0.495622 0.607741 0.289258
O -0.601697 0.68724 1.524845
N 0.564964 1.120473 -0.417146
C 1.887732 1.062089 0.24812
H 1.694989 1.123516 1.322823
H 2.537548 1.879237 -0.073467
C -2.696073 1.343667 -0.563656
H -2.897743 1.551981 0.491112
H -2.279106 2.235131 -1.043259
H -3.623678 1.04344 -1.060724
O -2.522807 -0.79735 0.07927
C -1.812067 -2.092842 0.194603
H -2.202335 -2.581244 1.093342
H -2.028809 -2.721863 -0.683788
H -0.718625 -1.968221 0.267573
C 2.576127 -0.336118 -0.110283
O 3.836802 -0.319089 -0.158734
O 1.749688 -1.288168 -0.344527
21
G: 25 x 25 i: 10 j: 10 E: 0.5185463064790383
C -1.474657 0.237571 -0.598375
H -0.904914 -0.073394 -1.484551
H 0.672711 1.328359 -0.961874
C -0.455703 0.567686 0.510268
O -0.636605 0.277562 1.705404
N 0.623173 1.307976 0.057693
C 1.934917 0.870873 0.605768
H 1.753287 0.574517 1.642458
H 2.682473 1.666208 0.560336
C -2.346991 1.466533 -0.872392
H -2.863453 1.7281 0.056258
H -1.733414 2.311938 -1.20069
H -3.094053 1.227516 -1.636514
O -2.513309 -0.684163 -0.177017
C -1.945065 -1.95893 0.32775
H -1.896434 -1.924421 1.419604
H -2.618731 -2.758078 -0.005507
H -0.925205 -2.112093 -0.054962
C 2.419788 -0.383548 -0.260561
O 3.666668 -0.521009 -0.380224
O 1.454719 -1.06309 -0.774807
21
G: 25 x 25 i: 11 j: 10 E: 0.5275045431571925
C -1.409687 0.293312 -0.570358
H -0.851968 -0.064056 -1.445973
H 0.674599 1.535386 -0.749608
C -0.384506 0.441842 0.565322
O -0.531108 -0.046233 1.696948
N 0.653489 1.315849 0.248572
C 1.98387 0.794802 0.671046
H 1.86203 0.427583 1.693339
H 2.751592 1.570856 0.630523
C -2.101733 1.638537 -0.826596
H -2.637301 1.924716 0.083773
H -1.374643 2.416664 -1.078796
H -2.826612 1.531139 -1.64041
O -2.579567 -0.48032 -0.195574
C -2.207305 -1.86866 0.171939
H -2.219626 -1.970159 1.259665
H -2.945813 -2.536907 -0.289977
H -1.192903 -2.104958 -0.177971
C 2.368377 -0.415578 -0.300975
O 3.599045 -0.585124 -0.513172
O 1.348145 -1.044165 -0.774057
21
G: 25 x 25 i: 12 j: 10 E: 0.629459278907234
C -1.368125 0.334734 -0.550176
H -0.861595 -0.055048 -1.442376
H 0.69721 1.649878 -0.477671
C -0.334523 0.283815 0.58447
O -0.476141 -0.390759 1.616487
N 0.671434 1.24909 0.463121
C 2.010298 0.67102 0.782619
H 1.912879 0.173677 1.750808
H 2.780045 1.444985 0.822254
C -1.886863 1.767676 -0.751614
H -2.366057 2.094685 0.176003
H -1.084134 2.464589 -1.007924
H -2.636362 1.767771 -1.54995
O -2.640348 -0.270567 -0.186284
C -2.478491 -1.726886 0.032671
H -2.514506 -1.942539 1.102205
H -3.294512 -2.237356 -0.496904
H -1.504072 -2.069387 -0.342373
C 2.362117 -0.409533 -0.344846
O 3.585552 -0.558063 -0.609195
O 1.32401 -0.975591 -0.85784
21
G: 25 x 25 i: 13 j: 10 E: 0.6845464384368825
C -1.365555 0.5079 -0.30436
H -0.939456 0.393097 -1.314279
H 0.763335 1.402121 0.54318
C -0.378187 -0.24431 0.604609
O -0.563367 -1.42049 0.975918
N 0.681523 0.522867 1.051452
C 1.99593 -0.174843 1.025142
H 1.81256 -1.205625 1.337831
H 2.719282 0.306691 1.687127
C -1.510848 1.994023 0.061874
H -1.778005 2.087862 1.118493
H -0.596931 2.560315 -0.136214
H -2.319752 2.412039 -0.544738
O -2.767813 0.14033 -0.107784
C -3.087917 -1.177148 -0.666536
H -2.501927 -1.949796 -0.168336
H -4.160816 -1.322279 -0.493574
H -2.889596 -1.2126 -1.750973
C 2.518502 -0.131139 -0.493288
O 3.771926 -0.103541 -0.638453
O 1.57039 -0.088648 -1.355096
21
G: 25 x 25 i: 14 j: 10 E: 0.7062077986211079
C -1.304116 0.544601 -0.074498
H -1.024477 0.725534 -1.124672
H 0.753343 0.54267 1.346238
C -0.452596 -0.682629 0.305959
O -0.749337 -1.823907 -0.110974
N 0.645241 -0.438744 1.105441
C 1.937159 -0.957446 0.580751
H 1.714092 -1.8836 0.044052
H 2.657227 -1.145553 1.380533
C -0.964154 1.825486 0.68957
H -0.972218 1.66645 1.773778
H 0.018217 2.153676 0.335299
H -1.717062 2.579174 0.440136
O -2.739026 0.413553 0.202298
C -3.41523 -0.450699 -0.766342
H -2.976273 -1.449283 -0.761828
H -4.468602 -0.477569 -0.463467
H -3.346743 -0.038642 -1.788912
C 2.510071 0.168074 -0.413627
O 3.766254 0.237925 -0.489737
O 1.594487 0.886682 -0.957851
21
G: 25 x 25 i: 15 j: 10 E: 0.6825339107526815
C -1.315945 0.558169 -0.152027
H -1.171635 0.694106 -1.233896
H 0.661629 0.509217 1.434776
C -0.418336 -0.648272 0.187168
O -0.646508 -1.767335 -0.323823
N 0.589796 -0.452068 1.111725
C 1.92139 -0.941036 0.669983
H 1.757307 -1.897293 0.166674
H 2.608249 -1.062212 1.510628
C -0.912014 1.86565 0.522439
H -0.912378 1.76828 1.614562
H 0.079611 2.11771 0.133575
H -1.634802 2.639644 0.2464
O -2.713945 0.42385 0.292069
C -3.471668 -0.503593 -0.548728
H -2.985338 -1.48022 -0.584986
H -4.469887 -0.572147 -0.10075
H -3.566823 -0.123739 -1.58179
C 2.494995 0.149411 -0.359475
O 3.749667 0.268606 -0.38885
O 1.575156 0.786023 -0.992324
21
G: 25 x 25 i: 16 j: 10 E: 0.38882375545472314
C -1.805101 0.522135 -0.491118
H -2.47337 0.408318 -1.360053
H 0.907758 0.874031 -0.257263
C -0.6851 -0.539789 -0.616918
O -0.988597 -1.754851 -0.780062
N 0.551634 -0.106542 -0.363871
C 1.759392 -0.9341 -0.341399
H 2.023495 -1.28687 -1.34952
H 1.652588 -1.796274 0.320918
C -1.297312 1.957889 -0.387571
H -0.656744 2.047568 0.493752
H -0.723947 2.236959 -1.27631
H -2.151189 2.632208 -0.270841
O -2.490385 0.458626 0.815941
C -3.368302 -0.708655 0.929933
H -2.824572 -1.62261 0.680519
H -3.717519 -0.720078 1.96787
H -4.239725 -0.622116 0.255949
C 2.878462 0.059031 0.23144
O 3.815272 -0.443302 0.899764
O 2.594904 1.296476 -0.011159
21
G: 25 x 25 i: 17 j: 10 E: 0.4023305947703193
C -1.868493 0.475435 -0.490462
H -2.65338 0.260532 -1.230898
H 0.827729 0.896046 -0.212039
C -0.712409 -0.518937 -0.742023
O -0.979529 -1.723187 -1.013499
N 0.50507 -0.07992 -0.416997
C 1.734764 -0.874143 -0.43471
H 2.03914 -1.122421 -1.46243
H 1.632396 -1.797922 0.139548
C -1.452493 1.942785 -0.535928
H -0.729845 2.131515 0.2624
H -0.995376 2.189442 -1.498697
H -2.328869 2.576129 -0.366746
O -2.317363 0.441172 0.91812
C -3.040469 -0.793232 1.231875
H -2.482918 -1.670484 0.891403
H -3.163878 -0.80236 2.319641
H -4.035318 -0.808609 0.752542
C 2.808828 0.08754 0.264488
O 3.739345 -0.453969 0.910941
O 2.499605 1.334844 0.130041
21
G: 25 x 25 i: 18 j: 10 E: 0.4387702467774943
C -1.948233 0.365496 -0.451438
H -2.81409 -0.006001 -1.017587
H 0.711317 0.906772 -0.168588
C -0.74983 -0.538588 -0.818432
O -0.957638 -1.733886 -1.164029
N 0.447008 -0.059134 -0.472729
C 1.715728 -0.785022 -0.547208
H 2.044754 -0.917354 -1.588763
H 1.652258 -1.764339 -0.066668
C -1.702807 1.848849 -0.715992
H -0.885574 2.194623 -0.077698
H -1.436836 2.01825 -1.763612
H -2.601126 2.42113 -0.463245
O -2.136732 0.451224 1.010797
C -2.599 -0.822854 1.563373
H -2.013232 -1.66348 1.175834
H -2.486707 -0.744141 2.649068
H -3.659339 -1.006433 1.317544
C 2.734351 0.154382 0.2579
O 3.683311 -0.404764 0.861841
O 2.368342 1.392593 0.239341
21
G: 25 x 25 i: 19 j: 10 E: 0.27800953318546817
C -2.047403 -0.048941 0.233355
H -2.730215 -0.380284 1.029088
H 0.179827 0.223324 -1.024669
C -0.836818 -1.007027 0.302127
O -0.737513 -1.858808 1.212265
N 0.104747 -0.743999 -0.638254
C 1.504043 -1.181104 -0.475838
H 1.850837 -1.716036 -1.369556
H 1.587032 -1.822118 0.402924
C -2.739515 -0.138687 -1.129302
H -2.023664 0.116721 -1.913347
H -3.119055 -1.151016 -1.303821
H -3.568143 0.576627 -1.160756
O -1.747608 1.387746 0.251941
C -0.473075 1.747938 0.905072
H 0.373676 1.60723 0.222114
H -0.571909 2.806624 1.168029
H -0.30745 1.165464 1.822982
C 2.338989 0.162265 -0.252927
O 3.370203 0.099989 0.457875
O 1.754734 1.192922 -0.784598
21
G: 25 x 25 i: 20 j: 10 E: 0.1831601284829958
C -2.010038 -0.004682 0.293003
H -2.578209 -0.200563 1.215633
H 0.165013 0.300754 -0.964626
C -0.82118 -0.990993 0.302757
O -0.743135 -1.910245 1.145314
N 0.105112 -0.686012 -0.640856
C 1.497814 -1.159438 -0.540949
H 1.818419 -1.622618 -1.483414
H 1.578272 -1.877638 0.27643
C -2.881438 -0.269226 -0.939094
H -2.263056 -0.156335 -1.832404
H -3.289985 -1.284493 -0.906603
H -3.698286 0.459401 -0.971816
O -1.684025 1.393938 0.036114
C -0.521804 1.890028 0.805
H 0.405791 1.70248 0.249424
H -0.679997 2.967764 0.92079
H -0.471805 1.427444 1.802095
C 2.373258 0.135269 -0.216701
O 3.413433 -0.022693 0.467286
O 1.821026 1.224017 -0.654166
21
G: 25 x 25 i: 21 j: 10 E: 0.1144145621547068
C -1.976008 0.028113 0.334465
H -2.434724 -0.081316 1.329651
H 0.188201 0.36906 -0.901893
C -0.825837 -0.999938 0.255486
O -0.809714 -2.010495 0.990877
N 0.13146 -0.626573 -0.624089
C 1.509854 -1.137942 -0.558638
H 1.818737 -1.555956 -1.526272
H 1.574855 -1.904737 0.215206
C -2.992659 -0.31496 -0.762301
H -2.482137 -0.260117 -1.727451
H -3.37983 -1.32744 -0.610877
H -3.814238 0.408757 -0.746456
O -1.660392 1.385492 -0.082702
C -0.568325 2.007725 0.702174
H 0.401301 1.80165 0.229835
H -0.76997 3.084285 0.690462
H -0.577515 1.653763 1.744378
C 2.420544 0.114212 -0.168511
O 3.458885 -0.11265 0.499658
O 1.904932 1.239503 -0.550835
21
G: 25 x 25 i: 22 j: 10 E: 0.0917267064578482
C -1.935733 0.046396 0.359277
H -2.259523 0.002381 1.411344
H 0.245336 0.414143 -0.851441
C -0.823877 -1.012453 0.183289
O -0.881182 -2.09676 0.804897
N 0.18204 -0.585186 -0.603382
C 1.546777 -1.125215 -0.546195
H 1.858936 -1.519272 -1.523153
H 1.594379 -1.917372 0.20328
C -3.096367 -0.362118 -0.558724
H -2.742882 -0.319372 -1.593299
H -3.403025 -1.384333 -0.317712
H -3.937721 0.327943 -0.437284
O -1.675672 1.371722 -0.176572
C -0.644347 2.1242 0.578288
H 0.35894 1.906141 0.187092
H -0.881101 3.182194 0.423017
H -0.703258 1.898047 1.654487
C 2.4749 0.102166 -0.114445
O 3.504773 -0.162043 0.553346
O 1.985521 1.245575 -0.47437
21
G: 25 x 25 i: 23 j: 10 E: 0.1003536443804478
C -1.892728 0.050596 0.36941
H -2.060036 0.062666 1.459052
H 0.319928 0.444676 -0.807299
C -0.816328 -1.026168 0.093042
O -0.937147 -2.164544 0.601534
N 0.242313 -0.557735 -0.584645
C 1.5965 -1.116348 -0.519569
H 1.921916 -1.498302 -1.497241
H 1.630583 -1.920324 0.218127
C -3.177035 -0.412574 -0.331249
H -3.016647 -0.364201 -1.413001
H -3.374965 -1.44658 -0.034954
H -4.019573 0.233964 -0.065295
O -1.715223 1.350109 -0.25719
C -0.746915 2.22385 0.448175
H 0.285214 2.012424 0.13474
H -1.015683 3.245718 0.160116
H -0.852023 2.118909 1.540044
C 2.526165 0.102074 -0.058731
O 3.545104 -0.176845 0.619535
O 2.050659 1.252106 -0.414911
21
G: 25 x 25 i: 24 j: 10 E: 0.13821715993071848
C -1.926142 0.096432 0.284461
H -2.046734 0.208209 1.374889
H 0.383838 0.40478 -0.759894
C -0.86018 -1.012941 0.095907
O -1.091653 -2.16412 0.534629
N 0.265351 -0.578474 -0.482007
C 1.598295 -1.166701 -0.341592
H 1.853821 -1.582961 -1.326179
H 1.701196 -1.940824 0.421091
C -3.250659 -0.382467 -0.321343
H -3.157325 -0.369501 -1.411938
H -3.425044 -1.406512 0.018973
H -4.077341 0.271735 -0.027134
O -1.608158 1.374656 -0.335767
C -0.74276 2.242829 0.494815
H 0.316152 1.959152 0.419623
H -0.878127 3.252689 0.094442
H -1.07141 2.22667 1.546303
C 2.549141 0.079854 -0.011381
O 3.690489 -0.176814 0.449865
O 2.051491 1.201758 -0.421393
21
G: 25 x 25 i: 24 j: 11 E: 0.0749623636384058
C -1.985182 0.124515 0.175986
H -2.222578 0.27751 1.242428
H 0.394388 0.366908 -0.767852
C -0.885279 -0.968456 0.184144
O -1.150484 -2.09728 0.661701
N 0.252856 -0.589668 -0.40745
C 1.572101 -1.182582 -0.207744
H 1.869398 -1.840061 -1.036555
H 1.600488 -1.755749 0.723208
C -3.229746 -0.38872 -0.558318
H -3.014655 -0.409421 -1.631672
H -3.433104 -1.403378 -0.205986
H -4.089351 0.265405 -0.380155
O -1.507522 1.410311 -0.313201
C -0.752172 2.187459 0.695151
H 0.286983 1.841659 0.783799
H -0.760854 3.219668 0.329841
H -1.256979 2.148118 1.674637
C 2.580459 0.059078 -0.123375
O 3.722069 -0.177093 0.342218
O 2.067835 1.16772 -0.550044
21
G: 25 x 25 i: 23 j: 11 E: 0.035362570504730684
C -2.007774 0.102185 0.139152
H -2.397903 0.203512 1.16542
H 0.347812 0.326069 -0.846049
C -0.866095 -0.93404 0.266677
O -1.075153 -2.007733 0.877831
N 0.229016 -0.615288 -0.438203
C 1.561635 -1.174835 -0.212812
H 1.868687 -1.857347 -1.017219
H 1.588104 -1.715302 0.737346
C -3.107478 -0.446931 -0.779763
H -2.720628 -0.472861 -1.803406
H -3.351845 -1.461728 -0.453291
H -3.994936 0.19349 -0.748918
O -1.543902 1.422869 -0.251507
C -0.792024 2.125704 0.81441
H 0.262844 1.819516 0.825683
H -0.860682 3.189513 0.56445
H -1.260041 1.956526 1.797783
C 2.554269 0.07813 -0.166053
O 3.696507 -0.128987 0.312027
O 2.030082 1.166895 -0.628857
21
G: 25 x 25 i: 22 j: 11 E: 0.022857627602206776
C -2.03106 0.060242 0.095056
H -2.567307 0.092542 1.056875
H 0.306816 0.273435 -0.909479
C -0.847086 -0.900117 0.345941
O -0.985455 -1.894978 1.092714
N 0.207136 -0.649789 -0.452444
C 1.555594 -1.163947 -0.197885
H 1.876461 -1.878698 -0.967889
H 1.586417 -1.656904 0.777501
C -2.94239 -0.504868 -1.003629
H -2.376373 -0.52082 -1.939762
H -3.239517 -1.523532 -0.73697
H -3.825468 0.130378 -1.128148
O -1.607062 1.420254 -0.19065
C -0.853911 2.04827 0.920561
H 0.215378 1.810146 0.845253
H -1.000813 3.126841 0.801466
H -1.260328 1.736565 1.895714
C 2.522858 0.106755 -0.206876
O 3.667575 -0.054273 0.282936
O 1.976285 1.164067 -0.715808
21
G: 25 x 25 i: 21 j: 11 E: 0.039640120423428016
C -2.048956 0.003521 0.038038
H -2.701024 -0.050062 0.923821
H 0.28806 0.197874 -0.968968
C -0.827846 -0.865273 0.410209
O -0.900729 -1.749218 1.291715
N 0.196592 -0.701395 -0.456324
C 1.560412 -1.154899 -0.155687
H 1.906406 -1.911102 -0.872933
H 1.593025 -1.577791 0.851792
C -2.760741 -0.557072 -1.200182
H -2.056254 -0.533341 -2.035773
H -3.07582 -1.589167 -1.017034
H -3.629259 0.064366 -1.44213
O -1.698732 1.405128 -0.134645
C -0.923238 1.962725 0.996843
H 0.150615 1.810196 0.828641
H -1.149669 3.034183 1.012414
H -1.238928 1.516603 1.952518
C 2.490854 0.138399 -0.240476
O 3.634685 0.046947 0.268275
O 1.913999 1.145094 -0.816664
21
G: 25 x 25 i: 20 j: 11 E: 0.10043813576703542
C -2.058358 -0.063436 -0.025888
H -2.787858 -0.222052 0.783297
H 0.303438 0.089235 -1.025688
C -0.808382 -0.830489 0.457315
O -0.839882 -1.572272 1.463056
N 0.206197 -0.770869 -0.440343
C 1.580273 -1.146322 -0.072527
H 1.962567 -1.956256 -0.707288
H 1.606099 -1.465245 0.97245
C -2.587857 -0.600215 -1.359442
H -1.803117 -0.494256 -2.111828
H -2.859944 -1.656607 -1.26512
H -3.462481 -0.017129 -1.666542
O -1.828386 1.377148 -0.077011
C -0.985159 1.886978 1.025022
H 0.074713 1.816879 0.750264
H -1.270082 2.936563 1.155786
H -1.177739 1.344878 1.963159
C 2.466254 0.165686 -0.266897
O 3.60231 0.171572 0.265282
O 1.857257 1.091909 -0.940275
21
G: 25 x 25 i: 19 j: 11 E: 0.18722181039265706
C -2.065678 -0.135623 -0.098112
H -2.853411 -0.451112 0.601076
H 0.352336 -0.028108 -1.066512
C -0.805378 -0.825536 0.468319
O -0.837888 -1.444297 1.555266
N 0.235007 -0.831048 -0.401078
C 1.606076 -1.121166 0.049309
H 2.030427 -1.987866 -0.473382
H 1.609083 -1.310424 1.125516
C -2.404167 -0.553663 -1.53107
H -1.575209 -0.284489 -2.188855
H -2.573493 -1.634195 -1.588379
H -3.303188 -0.021501 -1.859605
O -2.006816 1.324266 0.052953
C -1.019887 1.80433 1.040496
H -0.011248 1.822895 0.60953
H -1.337875 2.820826 1.296441
H -1.023708 1.187551 1.951074
C 2.454702 0.189903 -0.279445
O 3.573327 0.306253 0.274253
O 1.827281 1.008063 -1.069514
21
G: 25 x 25 i: 18 j: 11 E: 0.23583053503352858
C -2.059457 -0.134483 -0.252
H -2.918421 -0.737069 0.063804
H 0.421548 0.146681 -1.067479
C -0.84074 -0.97789 0.186327
O -0.9489 -1.842841 1.085311
N 0.272337 -0.750819 -0.545984
C 1.617746 -1.090735 -0.067184
H 2.089924 -1.873176 -0.675211
H 1.575156 -1.421724 0.973848
C -2.121532 0.169056 -1.753156
H -1.279495 0.805591 -2.036878
H -2.087028 -0.753502 -2.342528
H -3.04712 0.71215 -1.971052
O -2.21572 1.06554 0.59717
C -1.046439 1.417862 1.422278
H -0.158356 1.684166 0.835978
H -1.3776 2.279877 2.011144
H -0.779786 0.599159 2.106004
C 2.44901 0.271372 -0.182772
O 3.537071 0.339535 0.434243
O 1.835461 1.173077 -0.891312
21
G: 25 x 25 i: 17 j: 11 E: 0.23263648850661411
C -2.003752 -0.005216 -0.403959
H -2.891198 -0.627743 -0.554464
H 0.472168 0.401574 -1.053983
C -0.834816 -1.006151 -0.226894
O -1.005774 -2.087788 0.378563
N 0.313484 -0.606787 -0.819955
C 1.63815 -1.043863 -0.363024
H 2.186111 -1.60016 -1.134041
H 1.543626 -1.664486 0.532014
C -1.837871 1.019783 -1.532701
H -1.033827 1.720757 -1.285902
H -1.600428 0.527314 -2.481331
H -2.765689 1.592263 -1.634994
O -2.33445 0.577428 0.913416
C -1.155116 0.804118 1.770086
H -0.334071 1.336464 1.27207
H -1.528727 1.395073 2.612788
H -0.760195 -0.150576 2.143871
C 2.407522 0.319445 -0.014423
O 3.449489 0.236474 0.675162
O 1.794879 1.372429 -0.473499
21
G: 25 x 25 i: 16 j: 11 E: 0.25333342237172474
C -1.933259 0.119441 -0.486936
H -2.787318 -0.402788 -0.931762
H 0.514758 0.588831 -1.075833
C -0.76832 -0.90654 -0.481423
O -0.939602 -2.056684 -0.02208
N 0.37253 -0.446356 -1.057552
C 1.690754 -0.931819 -0.612148
H 2.317773 -1.258096 -1.450441
H 1.562618 -1.754915 0.094641
C -1.66523 1.452751 -1.19501
H -0.870855 2.002983 -0.678483
H -1.364134 1.289831 -2.235376
H -2.57928 2.054847 -1.167571
O -2.426422 0.226936 0.899305
C -1.318259 0.272 1.876546
H -0.485922 0.918038 1.562324
H -1.759694 0.651258 2.804025
H -0.920196 -0.737095 2.040246
C 2.354781 0.328048 0.127213
O 3.348491 0.11033 0.857522
O 1.717751 1.440455 -0.100794
21
G: 25 x 25 i: 15 j: 11 E: 0.3173913358223217
C -1.862086 0.225616 -0.536183
H -2.641044 -0.159478 -1.205762
H 0.556073 0.772936 -1.097552
C -0.673888 -0.771016 -0.6452
O -0.814842 -1.962461 -0.299226
N 0.446412 -0.252107 -1.229938
C 1.765501 -0.767232 -0.796531
H 2.457748 -0.868629 -1.639904
H 1.632141 -1.730884 -0.302001
C -1.553769 1.695856 -0.846822
H -0.763992 2.067931 -0.184852
H -1.227071 1.811473 -1.886506
H -2.465692 2.279968 -0.686892
O -2.52442 -0.044725 0.748494
C -1.535864 -0.155803 1.845437
H -0.683495 0.529602 1.721684
H -2.077375 0.079789 2.767799
H -1.141689 -1.176667 1.886425
C 2.310128 0.308304 0.261825
O 3.265096 -0.046624 0.991806
O 1.640338 1.421854 0.251673
21
G: 25 x 25 i: 14 j: 11 E: 0.4051766075335763
C -1.795215 -0.500708 0.402437
H -2.488059 -0.616064 1.246811
H 0.504774 -1.445301 0.845789
C -0.552515 0.259352 0.948376
O -0.594878 1.486903 1.156779
N 0.517355 -0.530224 1.296901
C 1.863756 0.05298 1.070784
H 2.60997 -0.449143 1.69632
H 1.82189 1.114532 1.31408
C -1.492821 -1.861896 -0.247771
H -0.661903 -1.747242 -0.954492
H -1.224518 -2.607108 0.512613
H -2.396282 -2.198369 -0.765367
O -2.572964 0.45338 -0.388
C -1.730453 1.178022 -1.370705
H -0.864262 0.586251 -1.702118
H -2.382678 1.407817 -2.220887
H -1.35039 2.097542 -0.917083
C 2.221217 -0.092202 -0.483766
O 3.180178 0.618958 -0.877117
O 1.453433 -0.889821 -1.147924
21
G: 25 x 25 i: 13 j: 11 E: 0.45118073892263055
C -1.729817 -0.704838 0.064154
H -2.307474 -1.409358 0.67905
H 0.479899 -1.933807 -0.054266
C -0.429902 -0.371361 0.846059
O -0.362615 0.592568 1.626975
N 0.587971 -1.295948 0.730711
C 1.954138 -0.716967 0.755013
H 2.694692 -1.523676 0.721518
H 2.075381 -0.140226 1.671588
C -1.456517 -1.295087 -1.337257
H -0.6225 -0.738781 -1.784163
H -1.201285 -2.362245 -1.272841
H -2.370585 -1.196505 -1.93069
O -2.613591 0.448137 0.159982
C -1.960392 1.71371 -0.261625
H -1.047675 1.54127 -0.84919
H -2.69938 2.266186 -0.855555
H -1.677859 2.282752 0.627462
C 2.15152 0.29689 -0.468411
O 3.148422 1.055379 -0.355281
O 1.251136 0.247909 -1.388611
21
G: 25 x 25 i: 12 j: 11 E: 0.5200522940176597
C -1.673026 -0.74775 0.064554
H -2.128202 -1.542695 0.672528
H 0.489931 -2.030172 0.118821
C -0.367792 -0.320645 0.781089
O -0.276849 0.722985 1.444179
N 0.624926 -1.284053 0.799097
C 1.999984 -0.723794 0.743105
H 2.717763 -1.545402 0.640552
H 2.204691 -0.173243 1.661491
C -1.405413 -1.249508 -1.376454
H -0.580391 -0.658432 -1.793877
H -1.129741 -2.31366 -1.372212
H -2.327969 -1.141063 -1.955609
O -2.657737 0.294159 0.298611
C -2.210467 1.613551 -0.218514
H -1.254695 1.549839 -0.754866
H -2.994181 1.994823 -0.88731
H -2.071501 2.289408 0.628702
C 2.157845 0.323261 -0.462298
O 3.181908 1.048525 -0.373177
O 1.214307 0.332866 -1.337211
21
G: 25 x 25 i: 11 j: 11 E: 0.20216203723794024
C -1.504036 -0.61769 0.492455
H -1.379922 -0.945988 1.530301
H 0.965522 -0.511168 1.010759
C -0.630285 0.655514 0.303454
O -1.056161 1.728967 -0.186815
N 0.620207 0.450033 0.767026
C 1.823055 1.09642 0.229263
H 2.308591 1.761122 0.955274
H 1.585034 1.663298 -0.674522
C -1.007961 -1.722544 -0.478639
H 0.066883 -1.903545 -0.366916
H -1.574382 -2.644417 -0.30691
H -1.174652 -1.399115 -1.512297
O -2.928509 -0.298011 0.514748
C -3.453091 0.272625 -0.730212
H -3.488155 -0.463535 -1.548768
H -4.479052 0.576467 -0.492407
H -2.856808 1.135922 -1.027614
C 2.795424 -0.132917 -0.125361
O 3.772795 0.103347 -0.873175
O 2.405232 -1.250268 0.410011
21
G: 25 x 25 i: 10 j: 11 E: 0.1703405129883322
C -1.457806 -0.612025 0.436891
H -1.236173 -0.975502 1.445905
H 0.932017 -0.446868 1.101606
C -0.589275 0.650353 0.213236
O -0.970629 1.661939 -0.42291
N 0.61145 0.517127 0.830157
C 1.842332 1.109213 0.276636
H 2.355804 1.754159 1.000131
H 1.613029 1.683224 -0.62426
C -1.026015 -1.674378 -0.605781
H 0.053317 -1.855908 -0.519211
H -1.586862 -2.602497 -0.449542
H -1.226468 -1.304122 -1.617401
O -2.867735 -0.283687 0.626142
C -3.521699 0.274098 -0.564326
H -3.663486 -0.480877 -1.354045
H -4.507203 0.608844 -0.220565
H -2.941352 1.112444 -0.951853
C 2.761771 -0.15393 -0.090862
O 3.739525 0.045791 -0.848675
O 2.332762 -1.258138 0.443365
21
G: 25 x 25 i: 9 j: 11 E: 0.22384731623606058
C -1.428063 -0.619077 0.377385
H -1.128854 -1.016025 1.352503
H 0.894607 -0.388003 1.167983
C -0.542923 0.617614 0.111449
O -0.869373 1.552711 -0.658711
N 0.592006 0.573389 0.862861
C 1.853661 1.123586 0.320757
H 2.375932 1.747845 1.054923
H 1.649379 1.704902 -0.580687
C -1.095115 -1.655762 -0.719364
H -0.016123 -1.860123 -0.66473
H -1.668966 -2.576279 -0.565847
H -1.324268 -1.243586 -1.707969
O -2.799176 -0.25065 0.726226
C -3.551417 0.335727 -0.391775
H -3.808233 -0.415718 -1.155802
H -4.478564 0.719104 0.049443
H -2.975037 1.14061 -0.851145
C 2.733024 -0.167769 -0.047481
O 3.723403 0.004207 -0.795852
O 2.260282 -1.260314 0.472771
21
G: 25 x 25 i: 8 j: 11 E: 0.3475112225933117
C -1.407368 -0.635531 0.331145
H -1.049821 -1.060201 1.273567
H 0.851406 -0.295693 1.238187
C -0.492919 0.560571 0.001487
O -0.760709 1.386266 -0.904974
N 0.562981 0.645066 0.863021
C 1.853834 1.149072 0.331946
H 2.374057 1.774054 1.065968
H 1.680765 1.7118 -0.586809
C -1.2051 -1.666791 -0.794622
H -0.134759 -1.921635 -0.779306
H -1.815365 -2.560757 -0.627079
H -1.451758 -1.219783 -1.762999
O -2.717636 -0.194268 0.81724
C -3.532727 0.439548 -0.22848
H -3.916607 -0.297275 -0.9526
H -4.380786 0.896725 0.293814
H -2.948601 1.192709 -0.761951
C 2.701917 -0.175997 0.002674
O 3.709556 -0.04361 -0.731384
O 2.186887 -1.243469 0.530763
21
G: 25 x 25 i: 7 j: 11 E: 0.25318117460483336
C -1.655899 -0.753648 -0.254213
H -1.144171 -1.705382 -0.092975
H 1.003758 -0.952464 0.233615
C -0.602663 0.37208 -0.350451
O -0.961776 1.557567 -0.604731
N 0.636489 0.000188 -0.032433
C 1.81707 0.860317 -0.013013
H 1.796605 1.566888 0.827882
H 1.928355 1.427586 -0.942093
C -2.500673 -0.775436 -1.535764
H -1.894983 -1.129294 -2.377276
H -3.367877 -1.430834 -1.405106
H -2.824229 0.247441 -1.750339
O -2.351055 -0.66074 1.044983
C -3.14053 0.564465 1.214348
H -4.088617 0.523872 0.653495
H -3.366179 0.619666 2.285146
H -2.576926 1.440672 0.884983
C 3.043453 -0.157816 0.150141
O 4.190002 0.287419 -0.103417
O 2.662116 -1.3429 0.493591
21
G: 25 x 25 i: 6 j: 11 E: 0.254092810817383
C -1.706442 -0.281435 -0.754104
H -1.222415 -0.960576 -1.460105
H 0.948634 -0.793353 -0.566382
C -0.628595 0.603247 -0.087906
O -0.968693 1.631255 0.564995
N 0.597721 0.083834 -0.098093
C 1.780443 0.652969 0.543103
H 1.732614 0.570253 1.637591
H 1.926063 1.7049 0.279446
C -2.765511 0.591937 -1.432337
H -2.351268 1.047957 -2.338506
H -3.641525 -0.010215 -1.693454
H -3.039114 1.394472 -0.741502
O -2.141266 -1.289109 0.238374
C -2.805433 -0.703488 1.407256
H -3.845352 -0.413066 1.186796
H -2.810738 -1.491027 2.168695
H -2.27046 0.180186 1.767674
C 2.997437 -0.220474 -0.025143
O 4.153046 0.246038 0.131451
O 2.601678 -1.297298 -0.617172
21
G: 25 x 25 i: 5 j: 11 E: 0.28441071492306946
C -1.772137 -0.099709 -0.786883
H -1.352162 -0.508836 -1.7095
H 0.867028 -0.640245 -0.711025
C -0.676584 0.719606 -0.061721
O -0.993727 1.648983 0.732215
N 0.543145 0.191236 -0.151631
C 1.733047 0.644727 0.563458
H 1.662826 0.443985 1.641616
H 1.91938 1.713481 0.420573
C -3.011241 0.756412 -1.047961
H -2.816524 1.455665 -1.868877
H -3.862411 0.118881 -1.306498
H -3.219435 1.34366 -0.149539
O -1.913873 -1.374904 -0.049041
C -2.389199 -1.178385 1.323096
H -3.476818 -1.00639 1.360442
H -2.155823 -2.105467 1.857211
H -1.894054 -0.327847 1.804853
C 2.931503 -0.200825 -0.080859
O 4.097948 0.208484 0.14372
O 2.513859 -1.192126 -0.79347
21
G: 25 x 25 i: 4 j: 11 E: 0.12456634511181619
C -1.988886 -0.1609 -0.552368
H -2.020732 -0.215118 -1.646589
H 0.514555 -0.337532 -0.982336
C -0.934348 0.903003 -0.170363
O -1.171237 1.792443 0.678593
N 0.286287 0.642654 -0.694746
C 1.509769 1.145055 -0.047808
H 1.275011 1.481931 0.969487
H 1.966766 1.974747 -0.595898
C -3.357534 0.183003 0.035424
H -3.751339 1.10275 -0.409919
H -4.047393 -0.645877 -0.145665
H -3.244896 0.353668 1.109129
O -1.491029 -1.512576 -0.230336
C -0.463938 -1.554133 0.832737
H -0.698774 -0.858096 1.650998
H -0.490016 -2.579891 1.217238
H 0.52922 -1.327104 0.422453
C 2.525448 -0.081473 -0.025385
O 3.730601 0.180253 0.203094
O 1.95923 -1.217043 -0.296237
21
G: 25 x 25 i: 3 j: 11 E: 0.07268321869014471
C -2.012964 -0.116156 -0.52565
H -2.19872 -0.068243 -1.605237
H 0.483203 -0.39036 -0.913423
C -0.930079 0.940018 -0.200557
O -1.166883 1.91281 0.550575
N 0.28796 0.607438 -0.686283
C 1.520993 1.142244 -0.08874
H 1.295648 1.568461 0.896824
H 1.986416 1.917376 -0.705923
C -3.295892 0.15388 0.265707
H -3.671155 1.156656 0.045032
H -4.047974 -0.599276 0.012866
H -3.079478 0.112408 1.336966
O -1.449659 -1.47002 -0.446216
C -0.542319 -1.677575 0.705807
H -0.867423 -1.109822 1.589864
H -0.597793 -2.747649 0.934694
H 0.483871 -1.401075 0.42925
C 2.526487 -0.086086 0.034646
O 3.733866 0.191169 0.236808
O 1.957718 -1.237522 -0.136692
21
G: 25 x 25 i: 2 j: 11 E: 0.03747001154079044
C -2.037191 -0.08634 -0.478481
H -2.354551 0.030848 -1.52294
H 0.458567 -0.433151 -0.832192
C -0.935473 0.976235 -0.23381
O -1.175379 2.03164 0.396578
N 0.285894 0.56933 -0.635016
C 1.524253 1.132797 -0.085898
H 1.316604 1.608422 0.881132
H 1.980411 1.877199 -0.74687
C -3.227302 0.137871 0.462671
H -3.545391 1.180425 0.395328
H -4.047203 -0.536939 0.19865
H -2.927299 -0.047233 1.49857
O -1.457444 -1.426147 -0.585102
C -0.597718 -1.81187 0.560942
H -0.953648 -1.377378 1.505582
H -0.671766 -2.902725 0.62824
H 0.441693 -1.514668 0.367692
C 2.536922 -0.085848 0.079561
O 3.745443 0.211317 0.24773
O 1.977426 -1.247708 -0.028955
21
G: 25 x 25 i: 1 j: 11 E: 0.04537933050960419
C -2.054534 -0.048883 -0.418764
H -2.506966 0.130554 -1.404048
H 0.443326 -0.464383 -0.751804
C -0.930529 1.012825 -0.275216
O -1.165417 2.134257 0.233783
N 0.289818 0.541533 -0.581051
C 1.535592 1.122885 -0.07844
H 1.34882 1.641536 0.870852
H 1.986308 1.835279 -0.777685
C -3.119912 0.156293 0.668979
H -3.385667 1.215237 0.68363
H -3.997273 -0.466154 0.467659
H -2.719616 -0.096673 1.655496
O -1.511983 -1.377339 -0.693389
C -0.685432 -1.95797 0.395116
H -1.081715 -1.712573 1.389408
H -0.749057 -3.041732 0.252211
H 0.359423 -1.633166 0.301825
C 2.546274 -0.094288 0.120936
O 3.758131 0.207894 0.255577
O 1.984886 -1.25779 0.067047
21
G: 25 x 25 i: 0 j: 11 E: 0.09176512894919142
C -2.027909 0.061859 -0.423107
H -2.584555 0.362084 -1.321768
H 0.46398 -0.438916 -0.812858
C -0.852086 1.065082 -0.271642
O -1.068492 2.21576 0.177879
N 0.346015 0.559015 -0.594206
C 1.623545 1.093633 -0.124962
H 1.388177 1.548539 0.845642
H 2.141689 1.83666 -0.740337
C -2.967155 0.232397 0.783726
H -3.2028 1.296011 0.857893
H -3.876855 -0.362269 0.653704
H -2.472551 -0.064471 1.713416
O -1.636068 -1.309853 -0.729086
C -1.005995 -2.062692 0.382193
H -1.570086 -1.961656 1.318197
H -1.047498 -3.107773 0.060035
H 0.044318 -1.774472 0.519659
C 2.580036 -0.170032 0.059077
O 3.7497 0.078726 0.453162
O 1.978792 -1.305674 -0.072688
21
G: 25 x 25 i: 0 j: 12 E: 0.05797899628669256
C -1.982392 0.114274 -0.519475
H -2.45598 0.460606 -1.448829
H 0.531399 -0.407021 -0.870295
C -0.789704 1.059909 -0.207972
O -1.00698 2.202034 0.264586
N 0.404006 0.572285 -0.569754
C 1.688669 1.064765 -0.079589
H 1.558619 1.568633 0.884707
H 2.170121 1.765928 -0.772706
C -3.012512 0.302669 0.608359
H -3.208615 1.374084 0.686008
H -3.932092 -0.249632 0.389599
H -2.610888 -0.032757 1.569424
O -1.698806 -1.308579 -0.676609
C -1.265184 -2.022049 0.548561
H -1.893822 -1.774264 1.414038
H -1.401442 -3.081787 0.310342
H -0.205078 -1.840049 0.76691
C 2.620932 -0.222218 0.078791
O 3.790063 -0.009887 0.485227
O 2.048333 -1.330297 -0.262324
21
G: 25 x 25 i: 1 j: 12 E: 0.014962839517465909
C -1.957354 0.072677 -0.580807
H -2.270184 0.347922 -1.597677
H 0.560693 -0.388947 -0.919188
C -0.788341 1.003382 -0.15797
O -1.014696 2.09849 0.410056
N 0.412307 0.578087 -0.58175
C 1.686881 1.068081 -0.059011
H 1.541276 1.518819 0.928974
H 2.155027 1.814504 -0.712714
C -3.140303 0.338308 0.362857
H -3.307641 1.416742 0.396372
H -4.034212 -0.187758 0.013866
H -2.904994 0.009005 1.379572
O -1.696117 -1.364574 -0.575243
C -1.237448 -1.918103 0.723231
H -1.710783 -1.415379 1.576972
H -1.55516 -2.966264 0.716399
H -0.144053 -1.861544 0.801124
C 2.645155 -0.203839 0.039192
O 3.807734 0.009765 0.462624
O 2.094622 -1.305774 -0.356988
21
G: 25 x 25 i: 2 j: 12 E: 0.009987997560529038
C -1.929046 0.047801 -0.62775
H -2.114194 0.262275 -1.688438
H 0.590207 -0.356401 -0.99022
C -0.774471 0.949555 -0.120414
O -1.000958 1.974112 0.564461
N 0.423736 0.604695 -0.631453
C 1.692469 1.073956 -0.066949
H 1.524929 1.490069 0.93239
H 2.170051 1.84253 -0.686724
C -3.192634 0.380269 0.17569
H -3.374241 1.45603 0.128014
H -4.046997 -0.177061 -0.220174
H -3.04788 0.118139 1.228199
O -1.730601 -1.394916 -0.482723
C -1.227994 -1.812159 0.848444
H -1.589512 -1.152676 1.649708
H -1.63144 -2.817227 1.014629
H -0.130776 -1.840447 0.84276
C 2.648785 -0.199305 0.008396
O 3.803256 -0.003586 0.460716
O 2.100934 -1.28796 -0.429264
21
G: 25 x 25 i: 3 j: 12 E: 0.047545058359901304
C -1.898384 0.026041 -0.66583
H -1.965308 0.172202 -1.750503
H 0.629253 -0.306044 -1.059987
C -0.756299 0.895815 -0.087448
O -0.985875 1.827421 0.71704
N 0.437826 0.643884 -0.669159
C 1.700145 1.082711 -0.05813
H 1.512296 1.448921 0.956663
H 2.187772 1.878965 -0.632718
C -3.211581 0.443935 0.002279
H -3.412998 1.501012 -0.18986
H -4.029279 -0.176066 -0.376917
H -3.126074 0.317287 1.085249
O -1.804445 -1.411453 -0.381772
C -1.222448 -1.727798 0.941817
H -1.491556 -0.976051 1.698045
H -1.656597 -2.690935 1.233053
H -0.131252 -1.812332 0.860594
C 2.650325 -0.195918 -0.024019
O 3.797362 -0.03191 0.457329
O 2.099009 -1.260667 -0.516537
21
G: 25 x 25 i: 4 j: 12 E: 0.10028651386710408
C -1.870427 -0.008592 -0.687547
H -1.801888 0.039817 -1.780418
H 0.673311 -0.227879 -1.11559
C -0.752872 0.847647 -0.047213
O -0.999634 1.674882 0.860462
N 0.445907 0.686289 -0.652911
C 1.696308 1.086163 0.010108
H 1.494456 1.348491 1.053828
H 2.175813 1.940314 -0.481485
C -3.222103 0.517728 -0.204455
H -3.412965 1.520172 -0.601809
H -4.011829 -0.168306 -0.522987
H -3.200666 0.589585 0.885934
O -1.920658 -1.413454 -0.238249
C -1.178367 -1.689478 1.009395
H -1.303767 -0.881184 1.744313
H -1.620562 -2.608553 1.410253
H -0.111348 -1.841038 0.801784
C 2.660834 -0.180373 -0.070791
O 3.802968 -0.057142 0.431682
O 2.117056 -1.198537 -0.663949
21
G: 25 x 25 i: 5 j: 12 E: 0.10921392003001529
C -1.841884 -0.052254 -0.670796
H -1.608832 -0.147536 -1.739646
H 0.701778 -0.11711 -1.13282
C -0.773857 0.826691 0.020308
O -1.062811 1.583024 0.976689
N 0.44277 0.721575 -0.556348
C 1.681321 1.065584 0.151029
H 1.48584 1.165815 1.22415
H 2.134051 1.995333 -0.211997
C -3.213831 0.580177 -0.458006
H -3.330301 1.477867 -1.075983
H -3.9922 -0.146182 -0.706572
H -3.282797 0.87146 0.593165
O -2.081868 -1.357884 -0.015093
C -1.081497 -1.772772 0.985591
H -0.980783 -1.020806 1.781558
H -1.491483 -2.694057 1.414182
H -0.0901 -1.96522 0.555116
C 2.679049 -0.150676 -0.127217
O 3.823922 -0.074502 0.376412
O 2.15321 -1.082025 -0.864529
21
G: 25 x 25 i: 6 j: 12 E: 0.09953907122508099
C -1.796665 -0.05322 -0.65837
H -1.463432 -0.246544 -1.687061
H 0.71517 0.010073 -1.156368
C -0.753695 0.802744 0.095379
O -1.057602 1.451333 1.122354
N 0.45506 0.798757 -0.511595
C 1.699178 1.062033 0.222781
H 1.501792 1.081459 1.299881
H 2.175228 2.005387 -0.06728
C -3.141508 0.665045 -0.621626
H -3.147618 1.522577 -1.303804
H -3.938659 -0.032755 -0.892867
H -3.280608 1.021189 0.402701
O -2.19715 -1.256315 0.098107
C -1.115857 -1.857459 0.902096
H -0.874435 -1.216889 1.762067
H -1.527748 -2.806185 1.26292
H -0.187342 -2.034897 0.341735
C 2.669292 -0.154784 -0.151297
O 3.815054 -0.146495 0.355574
O 2.124417 -1.008631 -0.965352
21
G: 25 x 25 i: 7 j: 12 E: 0.14436059531544743
C -1.748767 -0.012003 -0.655678
H -1.369483 -0.239291 -1.660737
H 0.72764 0.163044 -1.185887
C -0.696987 0.74982 0.179543
O -0.980179 1.227398 1.300334
N 0.479154 0.904338 -0.480526
C 1.738524 1.067661 0.267558
H 1.534701 1.040888 1.342549
H 2.260067 1.999017 0.022398
C -3.026921 0.822416 -0.696968
H -2.905759 1.698734 -1.343033
H -3.858191 0.206909 -1.053339
H -3.215855 1.14828 0.329782
O -2.303136 -1.154205 0.087722
C -1.252995 -1.922029 0.791037
H -0.971671 -1.407749 1.719258
H -1.701494 -2.892805 1.027802
H -0.337686 -2.058435 0.194684
C 2.645726 -0.17969 -0.165231
O 3.789557 -0.255387 0.340727
O 2.060281 -0.961057 -1.022703
21
G: 25 x 25 i: 8 j: 12 E: 0.24856323732819874
C -1.698042 0.052726 -0.644178
H -1.293797 -0.183304 -1.637309
H 0.735232 0.355246 -1.192084
C -0.624705 0.676328 0.272734
O -0.869883 0.940987 1.468462
N 0.50716 1.018354 -0.406819
C 1.787222 1.058585 0.334884
H 1.587917 0.969129 1.406444
H 2.35583 1.973747 0.141252
C -2.874604 1.027286 -0.719615
H -2.606028 1.92525 -1.285833
H -3.734585 0.533758 -1.182967
H -3.117556 1.298986 0.31177
O -2.409918 -1.034378 0.032625
C -1.445799 -1.984422 0.6363
H -1.16365 -1.635812 1.636378
H -1.957573 -2.950622 0.702292
H -0.520049 -2.078773 0.044301
C 2.613995 -0.212488 -0.186254
O 3.756392 -0.385931 0.299655
O 1.975374 -0.9012 -1.08321
21
G: 25 x 25 i: 9 j: 12 E: 0.3848964978424192
C -1.631084 0.126403 -0.611836
H -1.195327 -0.117847 -1.589872
H 0.717261 0.641638 -1.157266
C -0.545745 0.599693 0.378173
O -0.739342 0.608507 1.609464
N 0.533786 1.152302 -0.26274
C 1.842561 1.027212 0.429219
H 1.666032 0.84919 1.492744
H 2.467196 1.915832 0.296625
C -2.681801 1.235258 -0.721669
H -2.252471 2.129048 -1.185171
H -3.536908 0.879823 -1.305847
H -3.010576 1.466925 0.295854
O -2.488003 -0.898212 -0.026668
C -1.650274 -2.024002 0.456675
H -1.384385 -1.856183 1.504835
H -2.246394 -2.937167 0.350753
H -0.710808 -2.105754 -0.116596
C 2.552566 -0.252951 -0.229151
O 3.693871 -0.546421 0.201643
O 1.837541 -0.814037 -1.153857
21
G: 25 x 25 i: 10 j: 12 E: 0.2207679113271297
C -1.639961 0.674265 -0.202121
H -1.330078 1.116785 -1.162519
H 0.99149 0.758238 -0.547614
C -0.644595 -0.442055 0.208208
O -1.006159 -1.457986 0.8514
N 0.620436 -0.098539 -0.052923
C 1.819818 -0.833299 0.334333
H 1.869136 -1.825163 -0.131531
H 1.9015 -0.958997 1.420738
C -1.619763 1.732066 0.907661
H -0.61871 2.163511 0.995002
H -2.353068 2.515608 0.69046
H -1.891434 1.237607 1.845237
O -3.05042 0.313488 -0.116268
C -3.383673 -0.866272 -0.91213
H -2.851263 -1.742048 -0.533104
H -4.465801 -1.001595 -0.806181
H -3.144852 -0.72515 -1.98047
C 3.032176 0.069928 -0.195584
O 4.192703 -0.353716 0.030474
O 2.634629 1.141111 -0.798325
21
G: 25 x 25 i: 11 j: 12 E: 0.19968775936467864
C -1.631976 0.643375 -0.251538
H -1.470457 0.98662 -1.287545
H 0.993975 0.756195 -0.504613
C -0.655319 -0.524238 0.061158
O -1.02659 -1.601286 0.588892
N 0.61478 -0.167787 -0.158753
C 1.810295 -0.93166 0.181334
H 1.918818 -1.837204 -0.428469
H 1.831855 -1.223053 1.238191
C -1.338181 1.782959 0.734154
H -0.306789 2.12657 0.623221
H -2.032607 2.611419 0.559778
H -1.489498 1.403491 1.749365
O -3.02166 0.405983 0.113572
C -3.61994 -0.705831 -0.626004
H -3.096421 -1.635437 -0.394473
H -4.662938 -0.757148 -0.294211
H -3.601434 -0.529889 -1.716116
C 3.023071 0.06925 -0.128494
O 4.181736 -0.358884 0.097318
O 2.627057 1.212913 -0.581974
21
G: 25 x 25 i: 12 j: 12 E: 0.21063759816206584
C -1.647013 0.611937 -0.31368
H -1.632583 0.864809 -1.388503
H 1.006832 0.780164 -0.412984
C -0.65609 -0.558433 -0.047134
O -1.029919 -1.689726 0.35225
N 0.617646 -0.168899 -0.160819
C 1.806922 -0.962482 0.127565
H 1.927965 -1.808089 -0.561085
H 1.811175 -1.349792 1.153302
C -1.225708 1.831649 0.520134
H -0.223573 2.171763 0.250783
H -1.947212 2.640901 0.367304
H -1.237614 1.546565 1.576374
O -2.973475 0.433727 0.265419
C -3.736701 -0.637602 -0.378924
H -3.220202 -1.589891 -0.251367
H -4.711461 -0.651086 0.121533
H -3.89199 -0.436405 -1.454164
C 3.021232 0.065925 -0.066913
O 4.178035 -0.376922 0.13709
O 2.62777 1.246343 -0.419979
21
G: 25 x 25 i: 13 j: 12 E: 0.2428862869146542
C -1.674977 0.581467 -0.366291
H -1.796063 0.732639 -1.454377
H 1.013518 0.827038 -0.248852
C -0.648666 -0.563744 -0.123678
O -1.008399 -1.746531 0.112186
N 0.617078 -0.137188 -0.084242
C 1.801571 -0.963235 0.12415
H 1.893587 -1.758641 -0.625983
H 1.820826 -1.424882 1.118575
C -1.212803 1.888811 0.291744
H -0.294482 2.269119 -0.160782
H -2.007711 2.634075 0.187292
H -1.037495 1.70606 1.355497
O -2.927369 0.430695 0.374392
C -3.78354 -0.6311 -0.161525
H -3.2632 -1.58755 -0.107212
H -4.683726 -0.631783 0.463492
H -4.076869 -0.424368 -1.207001
C 3.024826 0.061816 -0.016606
O 4.179408 -0.407525 0.133672
O 2.640562 1.270178 -0.272465
21
G: 25 x 25 i: 14 j: 12 E: 0.2612329724488518
C -1.705531 0.550506 -0.429789
H -1.993711 0.58737 -1.496174
H 0.990768 0.840618 -0.137236
C -0.651281 -0.577439 -0.242958
O -0.994966 -1.786911 -0.151654
N 0.601743 -0.139541 -0.095801
C 1.787184 -0.974722 0.066968
H 1.904722 -1.692482 -0.754425
H 1.780602 -1.532276 1.011215
C -1.188794 1.923267 0.011717
H -0.378393 2.273772 -0.632521
H -2.018848 2.635406 -0.02493
H -0.821581 1.856161 1.039204
O -2.839984 0.456294 0.497721
C -3.773287 -0.618074 0.146955
H -3.248889 -1.573936 0.130874
H -4.553024 -0.598717 0.916655
H -4.240604 -0.438461 -0.838857
C 3.004843 0.065447 0.064432
O 4.158454 -0.409756 0.203319
O 2.617491 1.291052 -0.080279
21
G: 25 x 25 i: 15 j: 12 E: 0.2647126025858597
C -1.743254 0.523744 -0.492409
H -2.190475 0.462891 -1.49988
H 0.953272 0.84578 -0.080185
C -0.658128 -0.580409 -0.380241
O -0.981811 -1.800269 -0.413356
N 0.576813 -0.139443 -0.132639
C 1.765108 -0.973557 0.015419
H 1.923808 -1.624426 -0.853353
H 1.725057 -1.603138 0.912436
C -1.212498 1.93469 -0.240068
H -0.472531 2.220826 -0.99246
H -2.051822 2.636435 -0.262232
H -0.746693 1.971141 0.74833
O -2.725161 0.478903 0.605708
C -3.67426 -0.629293 0.468515
H -3.136868 -1.574655 0.377579
H -4.296501 -0.602844 1.369865
H -4.320938 -0.495985 -0.418157
C 2.969039 0.073658 0.144699
O 4.121464 -0.400858 0.295298
O 2.573003 1.303109 0.078731
21
G: 25 x 25 i: 16 j: 12 E: 0.2665198474933277
C -1.792734 0.493257 -0.542436
H -2.391428 0.338603 -1.454606
H 0.896884 0.850476 -0.058722
C -0.67298 -0.575892 -0.52633
O -0.971587 -1.796352 -0.660797
N 0.541857 -0.134461 -0.197943
C 1.736264 -0.960611 -0.053872
H 1.950071 -1.540059 -0.96057
H 1.660992 -1.658407 0.788827
C -1.285329 1.930747 -0.468494
H -0.628482 2.159142 -1.312525
H -2.13991 2.61436 -0.466357
H -0.72802 2.064507 0.462511
O -2.578865 0.494634 0.709031
C -3.472574 -0.662101 0.806118
H -2.918824 -1.588632 0.637438
H -3.899304 -0.627435 1.814249
H -4.290135 -0.600553 0.065243
C 2.914231 0.088702 0.216463
O 4.0654 -0.381841 0.388505
O 2.501788 1.314136 0.223439
21
G: 25 x 25 i: 17 j: 12 E: 0.2817729781854723
C -1.853667 0.441462 -0.564503
H -2.582717 0.181827 -1.346446
H 0.817475 0.850879 -0.04424
C -0.696566 -0.578911 -0.65316
O -0.961134 -1.796028 -0.866635
N 0.497728 -0.130365 -0.265714
C 1.708595 -0.934215 -0.135694
H 1.976189 -1.436312 -1.073718
H 1.618581 -1.696685 0.647562
C -1.413398 1.897649 -0.680142
H -0.871302 2.067876 -1.61474
H -2.290771 2.550367 -0.63306
H -0.757658 2.13842 0.160783
O -2.409811 0.510596 0.804901
C -3.177267 -0.69025 1.142253
H -2.612086 -1.595471 0.901707
H -3.381943 -0.6267 2.215977
H -4.133771 -0.723551 0.591145
C 2.845766 0.11955 0.262572
O 4.001457 -0.336207 0.445187
O 2.401129 1.330413 0.344931
21
G: 25 x 25 i: 18 j: 12 E: 0.31837470127538836
C -1.929485 0.324393 -0.553159
H -2.758886 -0.09288 -1.141565
H 0.707608 0.836526 -0.043864
C -0.731128 -0.637541 -0.716367
O -0.944371 -1.859011 -0.951076
N 0.44594 -0.143751 -0.329502
C 1.692135 -0.893629 -0.217988
H 2.005456 -1.326624 -1.176122
H 1.623397 -1.704168 0.51805
C -1.623184 1.76269 -0.962227
H -1.2763 1.805127 -1.998898
H -2.521221 2.377879 -0.844957
H -0.844331 2.163684 -0.308651
O -2.229239 0.578179 0.871452
C -2.773589 -0.61594 1.519025
H -2.186404 -1.50761 1.273052
H -2.744611 -0.421191 2.595643
H -3.816748 -0.801406 1.209322
C 2.768907 0.187914 0.26598
O 3.941143 -0.224831 0.447609
O 2.266033 1.369361 0.408631
21
G: 25 x 25 i: 19 j: 12 E: 0.15094014775422693
C -2.096185 -0.064328 0.103
H -2.868121 -0.433118 0.793574
H 0.258769 0.276697 -0.873435
C -0.901231 -1.029609 0.254291
O -0.888643 -1.911834 1.141629
N 0.144432 -0.716707 -0.550358
C 1.51188 -1.138619 -0.209364
H 1.920417 -1.855073 -0.931465
H 1.519744 -1.595821 0.785592
C -2.625171 -0.057153 -1.332875
H -2.993168 -1.049679 -1.613827
H -3.436542 0.673751 -1.415032
H -1.820059 0.23269 -2.011159
O -1.785842 1.364723 0.247153
C -0.592684 1.656962 1.066802
H 0.325646 1.524684 0.480777
H -0.698739 2.704731 1.367716
H -0.555315 1.026587 1.967349
C 2.394438 0.188817 -0.221637
O 3.610901 0.067682 0.055686
O 1.712342 1.251314 -0.526828
21
G: 25 x 25 i: 20 j: 12 E: 0.0683242522754881
C -2.068373 -0.013906 0.176858
H -2.743508 -0.238801 1.016844
H 0.249629 0.32633 -0.80705
C -0.891558 -1.006508 0.28931
O -0.900942 -1.941267 1.119553
N 0.143845 -0.674229 -0.520592
C 1.508569 -1.144936 -0.243705
H 1.879501 -1.8266 -1.018336
H 1.529658 -1.663868 0.720435
C -2.785886 -0.217524 -1.161043
H -3.206662 -1.226671 -1.219586
H -3.584595 0.524581 -1.263824
H -2.061931 -0.079921 -1.967329
O -1.703047 1.39099 0.018074
C -0.624381 1.832172 0.927667
H 0.354457 1.623035 0.477743
H -0.759327 2.91276 1.04452
H -0.708859 1.352099 1.914485
C 2.43122 0.153382 -0.199217
O 3.649794 -0.028135 0.037748
O 1.782591 1.253485 -0.424497
21
G: 25 x 25 i: 21 j: 12 E: 0.012308667099205195
C -2.039906 0.020458 0.234323
H -2.608347 -0.106619 1.168871
H 0.266904 0.379174 -0.744017
C -0.887796 -1.006801 0.267031
O -0.942977 -2.01983 0.998248
N 0.166426 -0.623259 -0.486828
C 1.520144 -1.139049 -0.255722
H 1.864911 -1.790023 -1.068428
H 1.542337 -1.708464 0.679732
C -2.924708 -0.295464 -0.978554
H -3.333298 -1.307246 -0.892555
H -3.738264 0.434494 -1.044368
H -2.305589 -0.227101 -1.87696
O -1.676653 1.385306 -0.116814
C -0.66615 1.97538 0.790219
H 0.344169 1.73453 0.434927
H -0.826791 3.057755 0.74759
H -0.81387 1.631724 1.825828
C 2.480129 0.129907 -0.161712
O 3.695715 -0.104558 0.046825
O 1.867986 1.258833 -0.327801
21
G: 25 x 25 i: 22 j: 12 E: 0.0
C -2.004266 0.038948 0.275291
H -2.439732 -0.015852 1.285779
H 0.313219 0.419913 -0.689441
C -0.875438 -1.013887 0.212272
O -0.986519 -2.096179 0.830992
N 0.211172 -0.58299 -0.454657
C 1.552752 -1.131468 -0.248255
H 1.88562 -1.758821 -1.084501
H 1.571189 -1.73488 0.665875
C -3.057045 -0.362676 -0.767425
H -3.390206 -1.385769 -0.56892
H -3.905849 0.328219 -0.734764
H -2.591887 -0.313628 -1.756467
O -1.692767 1.370028 -0.217638
C -0.737337 2.105438 0.643881
H 0.296898 1.856175 0.37183
H -0.923819 3.166418 0.448033
H -0.929013 1.897507 1.708593
C 2.536373 0.117875 -0.11655
O 3.747794 -0.15004 0.077923
O 1.949636 1.263224 -0.248613
21
G: 25 x 25 i: 23 j: 12 E: 0.016263734756648773
C -1.965341 0.043815 0.299239
H -2.247232 0.049004 1.365201
H 0.377322 0.451446 -0.634362
C -0.858465 -1.024345 0.134612
O -1.020469 -2.161257 0.635526
N 0.265539 -0.553452 -0.424367
C 1.596647 -1.123524 -0.227334
H 1.928289 -1.734386 -1.076314
H 1.612191 -1.746874 0.673478
C -3.165124 -0.423742 -0.535656
H -3.389656 -1.459137 -0.264174
H -4.033997 0.218889 -0.360295
H -2.890063 -0.37219 -1.593876
O -1.732867 1.347605 -0.299526
C -0.83413 2.211859 0.50059
H 0.220743 1.978267 0.30286
H -1.048669 3.234464 0.173473
H -1.062452 2.122106 1.575164
C 2.590533 0.117446 -0.068493
O 3.799014 -0.165686 0.122848
O 2.015576 1.269777 -0.184891
21
G: 25 x 25 i: 24 j: 12 E: 0.05849078823484888
C -1.985449 0.07411 0.207004
H -2.230735 0.181058 1.277027
H 0.439828 0.43629 -0.567471
C -0.877061 -1.007274 0.141358
O -1.127641 -2.161476 0.561717
N 0.297167 -0.55151 -0.307479
C 1.608243 -1.13236 -0.039809
H 1.865891 -1.767717 -0.896413
H 1.696044 -1.730759 0.873569
C -3.220982 -0.438777 -0.542297
H -3.407346 -1.466435 -0.2198
H -4.091394 0.195008 -0.345651
H -3.005503 -0.424522 -1.615392
O -1.636317 1.361242 -0.376215
C -0.874283 2.239769 0.538225
H 0.187108 1.961978 0.578955
H -0.969609 3.246112 0.118588
H -1.316399 2.227867 1.547641
C 2.626746 0.100807 -0.00697
O 3.846762 -0.200532 -0.071155
O 2.053278 1.24877 -0.162319
21
G: 25 x 25 i: 24 j: 13 E: 0.09384443340059079
C -2.021752 0.094565 0.096564
H -2.359482 0.249934 1.135226
H 0.419659 0.3969 -0.615227
C -0.897563 -0.966702 0.218245
O -1.172506 -2.095336 0.688828
N 0.28145 -0.562773 -0.269998
C 1.588218 -1.120798 0.065991
H 1.894667 -1.935847 -0.598633
H 1.591571 -1.495147 1.098079
C -3.179614 -0.458816 -0.742733
H -3.388869 -1.475168 -0.398658
H -4.068583 0.173676 -0.652046
H -2.86615 -0.483996 -1.791425
O -1.534457 1.388399 -0.361074
C -0.889952 2.187503 0.706186
H 0.135393 1.847168 0.906645
H -0.862908 3.212306 0.322263
H -1.494384 2.163301 1.628157
C 2.627498 0.0833 -0.108814
O 3.841218 -0.238526 -0.144125
O 2.074236 1.24196 -0.253257
21
G: 25 x 25 i: 23 j: 13 E: 0.0471625477548514
C -2.042213 0.066138 0.050428
H -2.530042 0.161887 1.034455
H 0.376636 0.357317 -0.705733
C -0.886079 -0.932397 0.294681
O -1.113732 -2.00292 0.903252
N 0.262311 -0.584574 -0.305766
C 1.580161 -1.102624 0.060406
H 1.903744 -1.936908 -0.571482
H 1.572605 -1.44168 1.104304
C -3.033195 -0.520205 -0.964085
H -3.281367 -1.53909 -0.653387
H -3.936358 0.095668 -1.024584
H -2.549546 -0.54269 -1.945725
O -1.580061 1.397344 -0.305994
C -0.947117 2.120234 0.823083
H 0.101293 1.816844 0.949471
H -0.989871 3.179042 0.5486
H -1.518599 1.965213 1.752764
C 2.604946 0.105409 -0.143342
O 3.822968 -0.202737 -0.154767
O 2.040363 1.252949 -0.32691
21
G: 25 x 25 i: 22 j: 13 E: 0.026499954676182824
C -2.060828 0.016281 -0.005027
H -2.68871 0.031825 0.899913
H 0.341578 0.309872 -0.776468
C -0.87362 -0.900594 0.364041
O -1.041266 -1.890166 1.110773
N 0.24572 -0.614443 -0.328087
C 1.575989 -1.07894 0.073481
H 1.923201 -1.93516 -0.514981
H 1.559613 -1.369695 1.131587
C -2.841059 -0.577089 -1.186552
H -3.134595 -1.6038 -0.948074
H -3.72522 0.032206 -1.400698
H -2.184856 -0.577323 -2.061934
O -1.652666 1.389118 -0.252263
C -1.02852 2.033883 0.928275
H 0.042906 1.795528 0.974762
H -1.159689 3.109987 0.775847
H -1.544734 1.736108 1.854839
C 2.576144 0.138398 -0.172506
O 3.800943 -0.141699 -0.1572
O 1.988217 1.265237 -0.407366
21
G: 25 x 25 i: 21 j: 13 E: 0.035545594360883115
C -2.07159 -0.047469 -0.075905
H -2.808814 -0.135891 0.737156
H 0.334656 0.250328 -0.833176
C -0.861143 -0.871443 0.412533
O -0.980627 -1.756714 1.286893
N 0.241716 -0.656778 -0.340346
C 1.580385 -1.052273 0.114402
H 1.961019 -1.935447 -0.409658
H 1.549617 -1.271743 1.189084
C -2.62919 -0.614616 -1.387755
H -2.92761 -1.65868 -1.250007
H -3.487504 -0.018152 -1.714148
H -1.842164 -0.557254 -2.144295
O -1.754805 1.368277 -0.195548
C -1.117229 1.929034 1.018319
H -0.030034 1.779239 0.974741
H -1.345367 2.999862 1.002754
H -1.54443 1.484357 1.930646
C 2.547375 0.17562 -0.192776
O 3.780209 -0.058833 -0.139248
O 1.924845 1.265734 -0.506295
21
G: 25 x 25 i: 20 j: 13 E: 0.08975352645575185
C -2.071879 -0.117345 -0.153628
H -2.876546 -0.337831 0.564478
H 0.360844 0.176327 -0.884761
C -0.846963 -0.850453 0.432104
O -0.943617 -1.618428 1.41326
N 0.256213 -0.710189 -0.34511
C 1.594759 -1.02227 0.179482
H 2.017163 -1.932411 -0.258689
H 1.538243 -1.150485 1.267592
C -2.431257 -0.611477 -1.558101
H -2.672453 -1.679353 -1.537967
H -3.288213 -0.044239 -1.936334
H -1.573934 -0.446762 -2.214628
O -1.894649 1.332095 -0.118141
C -1.191171 1.814814 1.089934
H -0.105049 1.766188 0.935606
H -1.5047 2.85648 1.217117
H -1.485185 1.240515 1.98175
C 2.525211 0.211337 -0.204263
O 3.764103 0.037895 -0.102167
O 1.86468 1.245345 -0.621898
21
G: 25 x 25 i: 19 j: 13 E: 0.17214737693757343
C -2.068136 -0.17982 -0.241789
H -2.908729 -0.591207 0.335249
H 0.412294 0.126523 -0.928043
C -0.839719 -0.868909 0.387586
O -0.944733 -1.571786 1.416889
N 0.285675 -0.745699 -0.360614
C 1.609919 -0.988325 0.236206
H 2.073956 -1.911007 -0.126338
H 1.514257 -1.046671 1.327463
C -2.237865 -0.457518 -1.736768
H -2.355709 -1.531004 -1.919211
H -3.119158 0.077936 -2.105435
H -1.357377 -0.09689 -2.27247
O -2.085746 1.258114 0.062065
C -1.234507 1.656541 1.202007
H -0.183051 1.73474 0.894935
H -1.609723 2.637709 1.512333
H -1.328877 0.952917 2.042192
C 2.513627 0.249822 -0.195734
O 3.752858 0.134953 -0.042457
O 1.82793 1.22823 -0.704677
21
G: 25 x 25 i: 18 j: 13 E: 0.22516208928936976
C -2.051612 -0.086799 -0.407861
H -2.91635 -0.752722 -0.305018
H 0.472736 0.399803 -0.868763
C -0.851708 -0.982303 -0.032654
O -1.010138 -2.000709 0.677941
N 0.319145 -0.600019 -0.595002
C 1.610668 -1.00323 -0.020234
H 2.112283 -1.785105 -0.599035
H 1.464624 -1.363602 1.005921
C -1.990202 0.524317 -1.810791
H -1.883451 -0.254227 -2.573726
H -2.906073 1.096313 -1.99295
H -1.142176 1.210247 -1.878402
O -2.31007 0.910163 0.654096
C -1.26899 1.010769 1.695044
H -0.306053 1.372004 1.309924
H -1.674797 1.724701 2.419775
H -1.11197 0.043049 2.192941
C 2.506946 0.316605 -0.048654
O 3.739619 0.179249 0.129171
O 1.821414 1.390486 -0.310554
21
G: 25 x 25 i: 17 j: 13 E: 0.22821403790294426
C -1.991158 0.105225 -0.518032
H -2.864397 -0.454157 -0.868046
H 0.523458 0.561127 -0.823859
C -0.852758 -0.938354 -0.409772
O -1.088035 -2.098976 -0.007019
N 0.355792 -0.47025 -0.804191
C 1.610288 -1.000596 -0.253552
H 2.175314 -1.610042 -0.965588
H 1.400629 -1.60267 0.639661
C -1.703295 1.318381 -1.41035
H -1.372948 1.007523 -2.406916
H -2.611712 1.923979 -1.494255
H -0.924924 1.939005 -0.954218
O -2.443935 0.44416 0.848657
C -1.362909 0.422428 1.853927
H -0.465149 0.983245 1.558283
H -1.805564 0.866689 2.751682
H -1.063503 -0.612546 2.070519
C 2.470982 0.299239 0.108144
O 3.691297 0.136092 0.33756
O 1.777092 1.400182 0.058288
21
G: 25 x 25 i: 16 j: 13 E: 0.24870541687596415
C -1.919848 0.203496 -0.574785
H -2.751274 -0.248744 -1.12637
H 0.567681 0.595526 -0.92369
C -0.800442 -0.87053 -0.531975
O -1.053393 -2.031002 -0.143083
N 0.409591 -0.431986 -0.973999
C 1.648274 -0.98302 -0.39209
H 2.287465 -1.47963 -1.127965
H 1.390243 -1.696025 0.399705
C -1.536441 1.567178 -1.16091
H -1.152477 1.462151 -2.181464
H -2.424335 2.2077 -1.168296
H -0.769399 2.042625 -0.539087
O -2.527776 0.242999 0.769248
C -1.513295 0.150299 1.841953
H -0.604978 0.737005 1.63604
H -2.006255 0.523887 2.745721
H -1.217632 -0.896536 1.985146
C 2.42625 0.286708 0.196512
O 3.631824 0.129132 0.497736
O 1.6977 1.365264 0.231853
21
G: 25 x 25 i: 15 j: 13 E: 0.31133484084966767
C -1.852437 0.233778 -0.628261
H -2.606978 -0.166694 -1.316482
H 0.600665 0.58946 -1.11285
C -0.718738 -0.827283 -0.561883
O -0.947619 -1.964749 -0.101391
N 0.473042 -0.43319 -1.106698
C 1.71614 -0.948578 -0.485753
H 2.422873 -1.3431 -1.221055
H 1.445709 -1.738039 0.222852
C -1.435977 1.65286 -1.035707
H -1.04515 1.665574 -2.060021
H -2.317766 2.29892 -0.97945
H -0.664567 2.028915 -0.354064
O -2.61032 0.114772 0.625615
C -1.708539 0.031625 1.798731
H -0.778929 0.607455 1.66439
H -2.276841 0.42593 2.648208
H -1.434554 -1.013679 1.977096
C 2.384855 0.295128 0.267533
O 3.579501 0.152684 0.623104
O 1.60749 1.328844 0.37146
21
G: 25 x 25 i: 14 j: 13 E: 0.3615870522135083
C -1.77856 0.133445 -0.715332
H -2.448395 -0.333152 -1.450095
H 0.585979 0.299264 -1.61817
C -0.605935 -0.858872 -0.473388
O -0.756242 -1.854793 0.261248
N 0.541464 -0.622336 -1.191339
C 1.821195 -0.920862 -0.507683
H 2.60278 -1.20905 -1.215689
H 1.626195 -1.743335 0.18533
C -1.342009 1.535884 -1.175236
H -0.998553 1.521666 -2.21868
H -2.207733 2.201043 -1.103316
H -0.530455 1.882782 -0.522997
O -2.652748 0.070748 0.45489
C -1.906802 0.167112 1.7337
H -0.948822 0.697518 1.624106
H -2.562942 0.702224 2.430251
H -1.692303 -0.839424 2.104218
C 2.294584 0.367225 0.310276
O 3.493354 0.331359 0.692223
O 1.401781 1.28184 0.477937
21
G: 25 x 25 i: 13 j: 13 E: 0.38699572103905666
C -1.706199 0.002253 -0.777268
H -2.257211 -0.575631 -1.532646
H 0.607639 -0.06444 -1.81598
C -0.500939 -0.865591 -0.323138
O -0.587201 -1.645944 0.641441
N 0.605323 -0.829694 -1.14638
C 1.907422 -0.937652 -0.448507
H 2.712098 -1.182662 -1.146435
H 1.805524 -1.730091 0.296753
C -1.284124 1.377973 -1.337511
H -0.918651 1.289806 -2.370352
H -2.165106 2.027143 -1.341369
H -0.49007 1.781114 -0.696235
O -2.697905 -0.024265 0.288708
C -2.137896 0.351592 1.611112
H -1.150937 0.826951 1.52796
H -2.855105 1.039495 2.07709
H -2.023387 -0.550814 2.217421
C 2.245518 0.427491 0.308246
O 3.443801 0.528803 0.682782
O 1.260711 1.242729 0.463424
21
G: 25 x 25 i: 12 j: 13 E: 0.4473481497607281
C -1.640944 0.0931 -0.800639
H -2.062278 -0.384732 -1.696803
H 0.626767 0.014176 -1.89618
C -0.433053 -0.770759 -0.357386
O -0.497944 -1.57028 0.589699
N 0.64054 -0.757726 -1.231405
C 1.957782 -0.878727 -0.559951
H 2.760711 -0.990451 -1.292963
H 1.914374 -1.762332 0.081457
C -1.23857 1.556397 -1.103668
H -0.841813 1.647118 -2.124661
H -2.134934 2.180929 -1.032786
H -0.465729 1.858086 -0.386329
O -2.731057 -0.179336 0.120898
C -2.370464 0.142306 1.524862
H -1.366605 0.577602 1.60629
H -3.119093 0.845923 1.914396
H -2.382303 -0.783454 2.105791
C 2.243149 0.38864 0.371294
O 3.442518 0.496557 0.74215
O 1.221448 1.117494 0.659072
21
G: 25 x 25 i: 11 j: 13 E: 0.2176547098588344
C -1.526141 0.615438 -0.49145
H -1.335239 0.956109 -1.514907
H 0.965997 0.559122 -0.822873
C -0.64469 -0.643285 -0.25108
O -1.080688 -1.724289 0.211446
N 0.632496 -0.414404 -0.626408
C 1.799087 -1.046458 0.000879
H 2.235338 -1.852948 -0.596682
H 1.535852 -1.441383 0.990119
C -1.115233 1.717637 0.522948
H -1.669822 2.638484 0.31231
H -1.364333 1.386263 1.537432
H -0.03537 1.901947 0.49851
O -2.940518 0.275105 -0.613729
C -3.540951 -0.318614 0.585198
H -3.646625 0.407364 1.406922
H -4.542186 -0.636713 0.272611
H -2.952051 -1.175057 0.915286
C 2.874835 0.139915 0.114198
O 4.059508 -0.188824 0.360023
O 2.37414 1.309239 -0.144993
21
G: 25 x 25 i: 10 j: 13 E: 0.18317536686481617
C -1.483545 0.613644 -0.430496
H -1.198381 0.997511 -1.415604
H 0.937017 0.491093 -0.926665
C -0.614126 -0.639296 -0.165705
O -1.01767 -1.657975 0.444018
N 0.625444 -0.483665 -0.697717
C 1.816969 -1.064535 -0.053253
H 2.288705 -1.852879 -0.647355
H 1.549237 -1.470759 0.929475
C -1.133562 1.660581 0.658668
H -1.679446 2.592436 0.475032
H -1.412325 1.273886 1.645382
H -0.049886 1.838539 0.656438
O -2.873212 0.272962 -0.719326
C -3.599439 -0.312928 0.414293
H -3.809892 0.428089 1.202006
H -4.552164 -0.658986 -0.002712
H -3.033445 -1.14706 0.831093
C 2.844345 0.158777 0.080621
O 4.036863 -0.126195 0.342762
O 2.303846 1.310749 -0.178433
21
G: 25 x 25 i: 9 j: 13 E: 0.23624354961248173
C -1.45622 0.622483 -0.369497
H -1.095719 1.042694 -1.313613
H 0.905292 0.428322 -1.00106
C -0.576634 -0.608106 -0.064554
O -0.937952 -1.550287 0.680571
N 0.60863 -0.542193 -0.734389
C 1.830309 -1.084235 -0.0996
H 2.320227 -1.852063 -0.704955
H 1.576836 -1.504047 0.880288
C -1.205159 1.636691 0.770077
H -1.762685 2.563013 0.594062
H -1.508839 1.204053 1.7295
H -0.12356 1.834291 0.798203
O -2.796226 0.248404 -0.817645
C -3.616514 -0.367422 0.234588
H -3.93683 0.367067 0.991111
H -4.50485 -0.755002 -0.277043
H -3.062952 -1.172769 0.720586
C 2.816976 0.17127 0.041642
O 4.019758 -0.077543 0.29496
O 2.236435 1.30639 -0.201923
21
G: 25 x 25 i: 8 j: 13 E: 0.36052801186815486
C -1.436497 0.63824 -0.327192
H -1.022941 1.085346 -1.235832
H 0.865034 0.329591 -1.09152
C -0.531978 -0.552248 0.043746
O -0.844725 -1.384492 0.929351
N 0.582829 -0.617157 -0.744233
C 1.835706 -1.109976 -0.118736
H 2.338195 -1.868052 -0.725283
H 1.603358 -1.522882 0.868193
C -1.315511 1.646791 0.830821
H -1.909465 2.546685 0.639103
H -1.63223 1.17959 1.768854
H -0.244983 1.893911 0.895958
O -2.706544 0.192557 -0.905902
C -3.582257 -0.467592 0.072119
H -4.024595 0.252913 0.77908
H -4.386286 -0.927199 -0.513696
H -3.026588 -1.22193 0.633708
C 2.782349 0.18095 0.001211
O 3.995696 -0.030829 0.241691
O 2.161802 1.292156 -0.242734
21
G: 25 x 25 i: 7 j: 13 E: 0.5034702947650658
C -1.39833 0.602409 -0.428258
H -1.011932 0.939255 -1.394129
H 0.681832 -0.187053 -1.486835
C -0.439673 -0.461189 0.130984
O -0.629394 -0.97992 1.25621
N 0.534973 -0.874161 -0.742743
C 1.855433 -1.170588 -0.131193
H 2.426649 -1.885325 -0.728827
H 1.670441 -1.575382 0.866618
C -1.388981 1.77338 0.564056
H -2.044115 2.584817 0.230167
H -1.694909 1.416696 1.552102
H -0.34006 2.094809 0.615481
O -2.632676 -0.032607 -0.920872
C -3.45555 -0.5927 0.155964
H -3.978958 0.192135 0.72496
H -4.199344 -1.227879 -0.338521
H -2.845892 -1.177448 0.84997
C 2.661074 0.216721 -0.019669
O 3.893611 0.092727 0.21141
O 1.941914 1.261838 -0.212134
21
G: 25 x 25 i: 6 j: 13 E: 0.5630361780695239
C -1.321365 0.586507 -0.469902
H -0.892296 0.856354 -1.436808
H 0.536254 -0.678961 -1.527877
C -0.356983 -0.379258 0.233637
O -0.474492 -0.641277 1.451652
N 0.489413 -1.093064 -0.595594
C 1.862915 -1.222701 -0.047331
H 2.45921 -1.934824 -0.62305
H 1.772775 -1.554709 0.989361
C -1.474501 1.835622 0.400759
H -2.199803 2.530946 -0.034908
H -1.782009 1.538967 1.407503
H -0.473566 2.274184 0.458881
O -2.497584 -0.17335 -0.951716
C -3.31427 -0.696526 0.144207
H -3.929446 0.087934 0.612998
H -3.976819 -1.445244 -0.30539
H -2.693532 -1.15333 0.921618
C 2.538092 0.234566 -0.076587
O 3.788199 0.246478 0.086622
O 1.702629 1.190757 -0.261791
21
G: 25 x 25 i: 5 j: 13 E: 0.6037691898163757
C -1.27027 0.59838 -0.465285
H -0.769876 0.855738 -1.398947
H 0.397837 -0.978378 -1.399976
C -0.305919 -0.279428 0.34376
O -0.382805 -0.37185 1.587617
N 0.430682 -1.201967 -0.402986
C 1.844975 -1.240899 0.051755
H 2.423588 -1.984813 -0.501664
H 1.843275 -1.481952 1.117572
C -1.58637 1.863152 0.329159
H -2.346045 2.466197 -0.17919
H -1.915301 1.591124 1.335818
H -0.637763 2.401204 0.410934
O -2.345846 -0.268005 -1.0055
C -3.183901 -0.82269 0.056207
H -3.898541 -0.082257 0.449842
H -3.742927 -1.650269 -0.395736
H -2.581342 -1.18914 0.895478
C 2.460516 0.223361 -0.143083
O 3.715885 0.305174 -0.076299
O 1.570032 1.136563 -0.324356
21
G: 25 x 25 i: 4 j: 13 E: 0.6582295892494585
C -1.271448 0.612969 -0.460759
H -0.698636 0.882256 -1.347196
H 0.241675 -1.17707 -1.166695
C -0.294593 -0.130892 0.462994
O -0.318226 -0.015836 1.704322
N 0.360622 -1.205013 -0.151652
C 1.802436 -1.215819 0.203576
H 2.328099 -2.040967 -0.283848
H 1.876152 -1.31601 1.289757
C -1.797887 1.861262 0.237382
H -2.580051 2.342702 -0.358573
H -2.166225 1.606768 1.234861
H -0.935778 2.525196 0.354469
O -2.183818 -0.388504 -1.060871
C -3.006989 -1.039223 -0.046018
H -3.828758 -0.392429 0.300684
H -3.432475 -1.932231 -0.517887
H -2.415961 -1.330372 0.832142
C 2.431658 0.191626 -0.217662
O 3.69016 0.246586 -0.247008
O 1.550452 1.106216 -0.440597
21
G: 25 x 25 i: 3 j: 13 E: 0.07596839618418016
C -2.011994 -0.124304 -0.452998
H -2.287863 -0.071526 -1.513072
H 0.4596 -0.382521 -1.048679
C -0.910934 0.939021 -0.219083
O -1.102489 1.921269 0.533543
N 0.26182 0.61397 -0.808135
C 1.542998 1.171074 -0.349112
H 1.378482 1.802415 0.52771
H 2.032019 1.764912 -1.132191
C -3.225595 0.140959 0.443213
H -3.997941 -0.608275 0.245524
H -2.922416 0.087382 1.492783
H -3.613806 1.146903 0.264291
O -1.446624 -1.478299 -0.427141
C -0.448755 -1.696581 0.644035
H -0.679277 -1.110287 1.545268
H -0.508957 -2.762033 0.893066
H 0.555077 -1.448157 0.277697
C 2.457329 -0.077594 0.03733
O 3.487985 0.159386 0.712373
O 1.977884 -1.206364 -0.383244
21
G: 25 x 25 i: 2 j: 13 E: 0.03346068435894267
C -2.032771 -0.099333 -0.403567
H -2.436242 0.012082 -1.418614
H 0.43996 -0.429849 -0.965185
C -0.922861 0.974143 -0.258179
O -1.128134 2.039227 0.36941
N 0.26198 0.572795 -0.758952
C 1.543964 1.152557 -0.343825
H 1.39169 1.822073 0.506958
H 2.022895 1.714707 -1.156682
C -3.142759 0.123524 0.631645
H -3.980994 -0.551906 0.435195
H -2.758738 -0.062789 1.639338
H -3.465166 1.166061 0.591253
O -1.459644 -1.437087 -0.551844
C -0.507121 -1.818357 0.518947
H -0.751019 -1.338583 1.476895
H -0.60976 -2.902962 0.635663
H 0.516829 -1.563525 0.217576
C 2.469603 -0.076773 0.079028
O 3.508685 0.195467 0.728148
O 1.997638 -1.223787 -0.294967
21
G: 25 x 25 i: 1 j: 13 E: 0.03458723618132353
C -2.047614 -0.064955 -0.342607
H -2.578317 0.101055 -1.290547
H 0.431106 -0.46383 -0.882535
C -0.925514 1.008478 -0.302646
O -1.13672 2.13849 0.199446
N 0.268406 0.542052 -0.70082
C 1.552884 1.135918 -0.328534
H 1.418739 1.832507 0.503752
H 2.021057 1.672479 -1.165168
C -3.025076 0.145039 0.824208
H -3.915576 -0.477957 0.694959
H -2.548364 -0.104939 1.777027
H -3.288089 1.204316 0.855125
O -1.52109 -1.39328 -0.64456
C -0.601116 -1.95669 0.375225
H -0.868267 -1.641294 1.392343
H -0.721925 -3.04304 0.304627
H 0.43724 -1.680553 0.151117
C 2.484679 -0.083694 0.11352
O 3.535328 0.207837 0.735447
O 2.010494 -1.240259 -0.224076
21
G: 25 x 25 i: 0 j: 13 E: 0.07476415582459595
C -2.01302 0.048944 -0.360343
H -2.634033 0.345143 -1.217248
H 0.46123 -0.429061 -0.941612
C -0.839025 1.063626 -0.294419
O -1.038885 2.216496 0.159152
N 0.334861 0.566899 -0.702982
C 1.644792 1.110908 -0.350314
H 1.455383 1.740074 0.523576
H 2.178822 1.70425 -1.105016
C -2.86658 0.213107 0.909583
H -3.781611 -0.383746 0.841396
H -2.307546 -0.085286 1.801543
H -3.098766 1.275985 1.002927
O -1.636969 -1.320645 -0.693481
C -0.920179 -2.073477 0.362756
H -1.381514 -1.940091 1.349409
H -1.023683 -3.12282 0.068665
H 0.145664 -1.813958 0.391001
C 2.529187 -0.151942 0.068994
O 3.434308 0.061493 0.916244
O 2.045418 -1.273066 -0.35833
21
G: 25 x 25 i: 0 j: 14 E: 0.1382206157741166
C -1.971928 0.108817 -0.454924
H -2.534268 0.469928 -1.327462
H 0.489324 -0.349966 -1.053412
C -0.775003 1.072699 -0.224962
O -0.97077 2.201181 0.287439
N 0.38691 0.615253 -0.71017
C 1.712632 1.1041 -0.323148
H 1.624389 1.783621 0.526721
H 2.213688 1.619584 -1.154655
C -2.899042 0.244288 0.766041
H -3.824014 -0.32165 0.615207
H -2.40539 -0.107705 1.676912
H -3.107808 1.308807 0.891487
O -1.674803 -1.302467 -0.678579
C -1.131108 -2.048899 0.482657
H -1.667892 -1.814667 1.410991
H -1.304427 -3.101644 0.236432
H -0.052387 -1.88212 0.603564
C 2.530439 -0.206481 0.092754
O 3.429486 -0.071919 0.958451
O 2.099146 -1.271559 -0.502948
21
G: 25 x 25 i: 1 j: 14 E: 0.10122176956974727
C -1.953188 0.066296 -0.523325
H -2.356468 0.365886 -1.500761
H 0.517062 -0.322959 -1.095251
C -0.774021 1.014192 -0.170072
O -0.976257 2.092541 0.437115
N 0.391764 0.626799 -0.712331
C 1.707972 1.122763 -0.297051
H 1.602994 1.756559 0.58549
H 2.195183 1.69135 -1.101602
C -3.058259 0.273289 0.523815
H -3.968435 -0.259221 0.231107
H -2.732701 -0.086121 1.504739
H -3.241773 1.346247 0.609785
O -1.658184 -1.362534 -0.588049
C -1.087639 -1.951024 0.650764
H -1.449788 -1.44339 1.553996
H -1.439979 -2.988219 0.669294
H 0.009632 -1.926075 0.619253
C 2.558407 -0.184294 0.054421
O 3.453193 -0.070947 0.927412
O 2.151534 -1.230181 -0.591608
21
G: 25 x 25 i: 2 j: 14 E: 0.10542135883406445
C -1.928007 0.0563 -0.572225
H -2.205531 0.314126 -1.602796
H 0.540011 -0.287075 -1.165597
C -0.748176 0.959491 -0.126191
O -0.932196 1.963217 0.600181
N 0.402922 0.654655 -0.758601
C 1.720026 1.129549 -0.309965
H 1.602806 1.742171 0.585486
H 2.217915 1.713824 -1.09587
C -3.123727 0.332555 0.348276
H -4.003183 -0.215833 -0.002652
H -2.889605 0.02089 1.370797
H -3.317403 1.407061 0.368805
O -1.696128 -1.386466 -0.51036
C -1.090093 -1.85919 0.758779
H -1.353412 -1.212169 1.606583
H -1.508887 -2.856101 0.937076
H 0.001252 -1.915291 0.655384
C 2.560667 -0.185948 0.026713
O 3.442276 -0.095096 0.915561
O 2.154976 -1.217996 -0.642799
21
G: 25 x 25 i: 3 j: 14 E: 0.15532605345106276
C -1.900647 0.048913 -0.612018
H -2.061671 0.258676 -1.676364
H 0.575657 -0.226449 -1.235265
C -0.720774 0.903337 -0.085483
O -0.891699 1.806545 0.763686
N 0.416994 0.698367 -0.788308
C 1.733089 1.145467 -0.298796
H 1.604617 1.716543 0.621775
H 2.240879 1.760841 -1.053253
C -3.154878 0.414618 0.188121
H -4.00085 -0.183871 -0.162642
H -2.980977 0.21636 1.249654
H -3.370685 1.480939 0.083786
O -1.774051 -1.400413 -0.425242
C -1.095186 -1.793748 0.830551
H -1.280274 -1.073273 1.640066
H -1.528895 -2.759559 1.11396
H -0.016249 -1.895547 0.658696
C 2.562756 -0.186196 -0.004804
O 3.431412 -0.139265 0.899683
O 2.153505 -1.189064 -0.716586
21
G: 25 x 25 i: 4 j: 14 E: 0.22083550443676359
C -1.876557 0.016329 -0.637274
H -1.900049 0.143893 -1.725974
H 0.625274 -0.125816 -1.279297
C -0.720379 0.85239 -0.035594
O -0.907966 1.643577 0.916202
N 0.423393 0.751431 -0.751982
C 1.726518 1.176804 -0.20915
H 1.582554 1.641143 0.767244
H 2.222304 1.880019 -0.890895
C -3.187897 0.491936 -0.009953
H -3.998283 -0.173353 -0.320654
H -3.083012 0.475417 1.077881
H -3.410641 1.521426 -0.308517
O -1.883018 -1.416129 -0.289959
C -1.044018 -1.776353 0.871793
H -1.097041 -1.016459 1.664543
H -1.46255 -2.715649 1.250608
H 0.000961 -1.92098 0.571051
C 2.580773 -0.164025 -0.05488
O 3.445275 -0.202035 0.853083
O 2.181471 -1.09443 -0.865798
21
G: 25 x 25 i: 5 j: 14 E: 0.22759908754960634
C -1.844019 -0.060853 -0.61571
H -1.667019 -0.105152 -1.699761
H 0.663351 0.017626 -1.254534
C -0.77098 0.841319 0.04314
O -1.036734 1.578618 1.020311
N 0.411513 0.795242 -0.604564
C 1.690862 1.196575 -0.004002
H 1.546059 1.460716 1.044906
H 2.140852 2.041538 -0.542031
C -3.222717 0.514405 -0.307161
H -3.988275 -0.230194 -0.541121
H -3.244597 0.766256 0.755981
H -3.401684 1.428265 -0.88482
O -2.012342 -1.394284 -0.000242
C -0.887989 -1.88666 0.813444
H -0.670845 -1.208076 1.650447
H -1.242341 -2.842866 1.213937
H 0.039407 -2.037766 0.247412
C 2.612852 -0.108213 -0.123258
O 3.498458 -0.278355 0.747336
O 2.235175 -0.885538 -1.092054
21
G: 25 x 25 i: 6 j: 14 E: 0.20801866450347006
C -1.791108 -0.058174 -0.610237
H -1.511399 -0.187239 -1.665411
H 0.674198 0.171263 -1.274416
C -0.7438 0.816412 0.119692
O -1.017468 1.425312 1.17853
N 0.421675 0.8935 -0.560509
C 1.709078 1.208058 0.078622
H 1.564362 1.384104 1.145751
H 2.187139 2.080633 -0.385008
C -3.161199 0.594911 -0.461883
H -3.941787 -0.126229 -0.719748
H -3.254257 0.899063 0.584071
H -3.244371 1.48078 -1.101307
O -2.093881 -1.310323 0.106219
C -0.918432 -1.955448 0.719459
H -0.565574 -1.38214 1.587629
H -1.277604 -2.933784 1.05624
H -0.066143 -2.078913 0.038041
C 2.589888 -0.113775 -0.148417
O 3.464603 -0.386697 0.706694
O 2.193888 -0.792536 -1.182154
21
G: 25 x 25 i: 7 j: 14 E: 0.24924077389187005
C -1.740342 -0.002726 -0.614528
H -1.416346 -0.140967 -1.654982
H 0.684713 0.349598 -1.295385
C -0.67274 0.756601 0.205258
O -0.90785 1.164152 1.363631
N 0.445859 1.013289 -0.518759
C 1.752877 1.213615 0.139563
H 1.613114 1.325082 1.215466
H 2.275814 2.085897 -0.271188
C -3.055095 0.767894 -0.517801
H -3.878977 0.136224 -0.862722
H -3.189956 1.016476 0.538615
H -3.016569 1.6897 -1.108357
O -2.19184 -1.219022 0.076067
C -1.0562 -2.004969 0.603665
H -0.673275 -1.547605 1.524973
H -1.46011 -2.998247 0.825983
H -0.213778 -2.082678 -0.099685
C 2.55516 -0.142277 -0.168416
O 3.410369 -0.51832 0.66698
O 2.120871 -0.733726 -1.240159
21
G: 25 x 25 i: 8 j: 14 E: 0.3528991063376452
C -1.687276 0.072846 -0.604388
H -1.336274 -0.058161 -1.636712
H 0.69214 0.55862 -1.276993
C -0.587964 0.67683 0.296533
O -0.771525 0.848752 1.519267
N 0.476489 1.131694 -0.423309
C 1.807467 1.199371 0.227884
H 1.687499 1.225229 1.311026
H 2.371055 2.07176 -0.122528
C -2.910594 0.987847 -0.524733
H -3.775383 0.488867 -0.972979
H -3.096018 1.162926 0.539011
H -2.722371 1.941242 -1.029442
O -2.301987 -1.102292 0.016209
C -1.254392 -2.057865 0.447232
H -0.86898 -1.767488 1.431161
H -1.734287 -3.04061 0.504042
H -0.398081 -2.085952 -0.246406
C 2.518457 -0.176553 -0.198185
O 3.358947 -0.668443 0.59094
O 2.03095 -0.657162 -1.301801
21
G: 25 x 25 i: 9 j: 14 E: 0.35401259669015417
C -1.668738 0.631822 -0.338768
H -1.238479 1.019733 -1.274093
H 0.983798 0.810029 -0.563231
C -0.628745 -0.214941 0.43418
O -0.984023 -1.004056 1.344228
N 0.632003 0.11689 0.141509
C 1.840844 -0.408016 0.77804
H 1.816225 -1.497116 0.859872
H 1.993205 0.02412 1.77795
C -2.092552 1.770155 0.594998
H -2.923226 2.327002 0.149974
H -2.422446 1.307769 1.529983
H -1.249635 2.440216 0.789951
O -2.986218 0.009056 -0.47665
C -2.919117 -1.358708 -0.986234
H -2.398625 -2.006615 -0.275012
H -3.95855 -1.684359 -1.104677
H -2.412293 -1.414716 -1.964036
C 3.016028 0.036289 -0.217848
O 4.034782 -0.696417 -0.273779
O 2.697921 1.080931 -0.906731
21
G: 25 x 25 i: 10 j: 14 E: 0.32940002448594896
C -1.641105 0.639945 -0.278863
H -1.284835 1.00391 -1.255874
H 0.989437 0.842441 -0.410315
C -0.631945 -0.385583 0.300256
O -0.995148 -1.356884 1.007199
N 0.634251 -0.010605 0.087756
C 1.83776 -0.653664 0.617107
H 1.847421 -1.728289 0.420147
H 1.946097 -0.485894 1.69881
C -1.739162 1.796984 0.722717
H -2.48735 2.521049 0.384116
H -2.053931 1.380655 1.68443
H -0.765387 2.282672 0.832233
O -3.037891 0.22331 -0.247302
C -3.269646 -1.03672 -0.951876
H -2.728418 -1.849838 -0.46213
H -4.350016 -1.211855 -0.901429
H -2.966227 -0.979076 -2.011327
C 3.028806 0.052912 -0.190477
O 4.070606 -0.619803 -0.390956
O 2.700584 1.230279 -0.607208
21
G: 25 x 25 i: 11 j: 14 E: 0.3099018614884699
C -1.631454 0.619204 -0.298064
H -1.389515 0.906483 -1.335196
H 0.995344 0.850371 -0.298538
C -0.635658 -0.473914 0.179565
O -1.00614 -1.537407 0.733669
N 0.633775 -0.069721 0.054199
C 1.829939 -0.77993 0.50899
H 1.858473 -1.810532 0.147015
H 1.908561 -0.782342 1.606093
C -1.490105 1.830887 0.63392
H -2.206081 2.606295 0.342532
H -1.718153 1.505492 1.653518
H -0.472351 2.22686 0.596316
O -3.035822 0.330011 -0.044368
C -3.511032 -0.850853 -0.767024
H -2.96836 -1.737716 -0.434408
H -4.576573 -0.937525 -0.527054
H -3.399957 -0.734225 -1.859349
C 3.032648 0.053439 -0.146313
O 4.087005 -0.571281 -0.422087
O 2.700728 1.278913 -0.38431
21
G: 25 x 25 i: 12 j: 14 E: 0.32309971539689286
C -1.637522 0.591577 -0.345874
H -1.529836 0.79149 -1.426299
H 1.005204 0.864922 -0.177284
C -0.631903 -0.518777 0.074879
O -0.999837 -1.647822 0.485008
N 0.633658 -0.085607 0.06414
C 1.822237 -0.846981 0.451266
H 1.851399 -1.831836 -0.021334
H 1.887415 -0.970136 1.542192
C -1.352635 1.869603 0.45726
H -2.097202 2.629848 0.200034
H -1.443549 1.636069 1.522194
H -0.349959 2.252172 0.255818
O -3.004631 0.38018 0.115071
C -3.661266 -0.74926 -0.548087
H -3.123076 -1.672337 -0.329008
H -4.678031 -0.782868 -0.140914
H -3.720317 -0.599954 -1.640998
C 3.033536 0.050789 -0.09393
O 4.090447 -0.541028 -0.426133
O 2.70498 1.296192 -0.199754
21
G: 25 x 25 i: 13 j: 14 E: 0.35283616637752857
C -1.653257 0.561009 -0.402174
H -1.704129 0.65353 -1.502084
H 1.000355 0.86793 -0.038664
C -0.629736 -0.552498 -0.03451
O -0.987864 -1.730951 0.222719
N 0.625869 -0.105097 0.068361
C 1.808543 -0.906272 0.388136
H 1.847364 -1.829639 -0.195017
H 1.851906 -1.15571 1.458303
C -1.257102 1.909849 0.213386
H -2.063298 2.627099 0.03058
H -1.132392 1.785812 1.292643
H -0.327203 2.292528 -0.213187
O -2.949379 0.422367 0.261574
C -3.753564 -0.676433 -0.281045
H -3.223564 -1.620383 -0.152158
H -4.691928 -0.666159 0.284905
H -3.981604 -0.519237 -1.350995
C 3.026348 0.051206 -0.023903
O 4.092594 -0.494178 -0.402131
O 2.694152 1.300105 0.011312
21
G: 25 x 25 i: 14 j: 14 E: 0.36754977671444067
C -1.674952 0.53147 -0.464757
H -1.891494 0.518295 -1.548258
H 0.969028 0.853093 0.071329
C -0.632895 -0.581317 -0.158818
O -0.977954 -1.788389 -0.048727
N 0.606826 -0.1304 0.052228
C 1.788219 -0.949316 0.328074
H 1.855403 -1.807246 -0.345392
H 1.799196 -1.307704 1.367656
C -1.19464 1.926653 -0.053849
H -2.022392 2.630729 -0.181578
H -0.900658 1.911555 0.999198
H -0.343212 2.250986 -0.657677
O -2.86752 0.469494 0.389537
C -3.774315 -0.621529 0.020406
H -3.248187 -1.5751 0.07367
H -4.601673 -0.576992 0.737534
H -4.177707 -0.480778 -0.999216
C 3.005826 0.057584 0.058804
O 4.091481 -0.434187 -0.33702
O 2.655301 1.292418 0.213457
21
G: 25 x 25 i: 15 j: 14 E: 0.3705190026812488
C -1.704344 0.50701 -0.529826
H -2.071704 0.406258 -1.565728
H 0.924863 0.841317 0.135914
C -0.635921 -0.592957 -0.290949
O -0.959684 -1.812623 -0.310529
N 0.577817 -0.143039 0.035028
C 1.759452 -0.966889 0.295334
H 1.856323 -1.777122 -0.43137
H 1.739351 -1.393912 1.308498
C -1.191588 1.92727 -0.292995
H -2.022328 2.628096 -0.419304
H -0.816752 2.007083 0.73118
H -0.38676 2.17933 -0.988762
O -2.767865 0.504004 0.49035
C -3.70889 -0.606661 0.319766
H -3.170737 -1.555858 0.303152
H -4.397914 -0.547443 1.169505
H -4.285227 -0.503279 -0.617782
C 2.973769 0.06669 0.136276
O 4.077681 -0.387178 -0.254248
O 2.60378 1.28455 0.36241
21
G: 25 x 25 i: 16 j: 14 E: 0.37293039501673775
C -1.747444 0.479349 -0.590083
H -2.263779 0.29392 -1.545578
H 0.864163 0.829409 0.161891
C -0.645648 -0.596885 -0.434772
O -0.943001 -1.818368 -0.55781
N 0.540037 -0.151979 -0.015367
C 1.722606 -0.974944 0.244711
H 1.865039 -1.734006 -0.528235
H 1.661883 -1.468385 1.225631
C -1.234974 1.915532 -0.524942
H -2.07783 2.604297 -0.637775
H -0.775542 2.085585 0.452692
H -0.492995 2.103621 -1.305832
O -2.640892 0.532391 0.586114
C -3.553647 -0.612253 0.642882
H -2.998652 -1.549215 0.554947
H -4.066717 -0.539068 1.6078
H -4.302125 -0.568911 -0.16873
C 2.927115 0.081092 0.211947
O 4.054342 -0.333237 -0.1557
O 2.529332 1.276123 0.501434
21
G: 25 x 25 i: 17 j: 14 E: 0.38864565686344577
C -1.804762 0.432496 -0.62968
H -2.460516 0.151198 -1.466877
H 0.783683 0.812572 0.170659
C -0.664226 -0.607905 -0.56805
O -0.928507 -1.827029 -0.766843
N 0.496471 -0.162254 -0.085251
C 1.688132 -0.973074 0.17099
H 1.887761 -1.670407 -0.646194
H 1.594673 -1.538034 1.110022
C -1.330155 1.876578 -0.760345
H -2.196148 2.541895 -0.833811
H -0.763433 2.146927 0.134739
H -0.689401 1.998392 -1.638133
O -2.486454 0.563703 0.677173
C -3.305388 -0.611181 0.983757
H -2.737351 -1.533938 0.833017
H -3.610702 -0.502609 2.029637
H -4.205086 -0.651401 0.344702
C 2.865267 0.109009 0.272184
O 4.018125 -0.253652 -0.070555
O 2.425338 1.270183 0.628458
21
G: 25 x 25 i: 18 j: 14 E: 0.4234737955375749
C -1.879346 0.322528 -0.638726
H -2.65944 -0.103554 -1.285265
H 0.676291 0.782094 0.158675
C -0.697308 -0.672483 -0.643986
O -0.916677 -1.896206 -0.856697
N 0.45014 -0.187444 -0.165789
C 1.670117 -0.955046 0.086791
H 1.936605 -1.589891 -0.761757
H 1.571271 -1.581656 0.985671
C -1.499422 1.733269 -1.080217
H -2.388664 2.371961 -1.076413
H -0.775148 2.149313 -0.375311
H -1.055462 1.71924 -2.079824
O -2.306163 0.645704 0.738935
C -2.942347 -0.506333 1.378925
H -2.358425 -1.421217 1.228371
H -3.01228 -0.265799 2.444383
H -3.955244 -0.681416 0.976847
C 2.788779 0.172444 0.297924
O 3.969088 -0.116025 -0.022099
O 2.282087 1.287373 0.707471
21
G: 25 x 25 i: 19 j: 14 E: 0.4275150688972644
C -2.020127 -0.181196 -0.48948
H -2.895338 -0.843223 -0.413471
H 0.486454 0.666249 -0.246046
C -0.80628 -1.030191 -0.03391
O -0.969134 -2.181937 0.432364
N 0.35259 -0.359187 -0.07843
C 1.646426 -0.836581 0.409929
H 1.956672 -1.76179 -0.08226
H 1.634493 -0.998315 1.498371
C -1.843891 0.336343 -1.916025
H -2.704795 0.955767 -2.189295
H -0.939468 0.945999 -1.971771
H -1.754368 -0.500272 -2.615923
O -2.163405 1.110748 0.199705
C -2.041803 0.978445 1.645249
H -1.030197 0.672839 1.940087
H -2.256081 1.969539 2.057186
H -2.755809 0.247166 2.057164
C 2.65802 0.343433 0.019122
O 3.851433 0.025667 -0.214071
O 2.060636 1.482877 -0.079789
21
G: 25 x 25 i: 20 j: 14 E: 0.15701384032945498
C -2.093701 -0.020333 0.06978
H -2.838727 -0.232613 0.851893
H 0.259148 0.319057 -0.715494
C -0.926299 -1.001626 0.301847
O -0.987661 -1.914608 1.151617
N 0.175671 -0.671087 -0.420366
C 1.515407 -1.11071 0.012327
H 1.904583 -1.927866 -0.601218
H 1.46092 -1.444035 1.057228
C -2.692754 -0.243274 -1.321942
H -3.476207 0.499639 -1.50452
H -1.902883 -0.121104 -2.066541
H -3.111723 -1.251737 -1.40114
O -1.708819 1.380972 -0.076147
C -0.721167 1.830772 0.931279
H 0.296532 1.587761 0.594093
H -0.84418 2.91689 0.997303
H -0.925589 1.385606 1.91712
C 2.471357 0.150083 -0.151514
O 3.681331 -0.079668 -0.398687
O 1.84407 1.28037 -0.081386
21
G: 25 x 25 i: 21 j: 14 E: 0.10166719292101334
C -2.068437 0.024891 0.144705
H -2.705991 -0.075707 1.036687
H 0.256918 0.362401 -0.671446
C -0.922591 -0.99879 0.29069
O -1.016389 -1.987063 1.048697
N 0.186454 -0.626451 -0.391311
C 1.521691 -1.120652 -0.018619
H 1.878805 -1.907106 -0.689627
H 1.479493 -1.519465 1.003821
C -2.860534 -0.314662 -1.12434
H -3.658795 0.420512 -1.269912
H -2.175439 -0.274775 -1.975377
H -3.285683 -1.320205 -1.045811
O -1.66365 1.377551 -0.210133
C -0.729484 1.980629 0.771995
H 0.304811 1.691557 0.53494
H -0.847277 3.063319 0.660169
H -1.001133 1.693515 1.799887
C 2.513928 0.11935 -0.123068
O 3.709763 -0.14087 -0.410812
O 1.935485 1.263696 0.035706
21
G: 25 x 25 i: 22 j: 14 E: 0.09522837782242277
C -2.032828 0.050833 0.20108
H -2.532667 0.027444 1.182204
H 0.289022 0.399354 -0.628647
C -0.908152 -1.00759 0.238845
O -1.047214 -2.067997 0.885867
N 0.222178 -0.590243 -0.366803
C 1.548219 -1.123285 -0.027728
H 1.889582 -1.883741 -0.736072
H 1.507565 -1.568299 0.975674
C -3.019849 -0.363628 -0.899156
H -3.857892 0.339796 -0.939893
H -2.490798 -0.346422 -1.85667
H -3.382753 -1.376413 -0.699611
O -1.666297 1.36393 -0.304233
C -0.768841 2.108444 0.615943
H 0.277922 1.807143 0.461325
H -0.891847 3.162889 0.349074
H -1.07933 1.962552 1.662871
C 2.563924 0.103212 -0.084582
O 3.751438 -0.172417 -0.393654
O 2.014711 1.251419 0.128389
21
G: 25 x 25 i: 23 j: 14 E: 0.12187404952965153
C -1.992599 0.05969 0.234684
H -2.337971 0.091411 1.280926
H 0.353767 0.430571 -0.565898
C -0.88839 -1.021596 0.160527
O -1.077122 -2.142904 0.682573
N 0.273174 -0.564045 -0.336083
C 1.587886 -1.122166 -0.003847
H 1.924935 -1.872555 -0.724729
H 1.546716 -1.582921 0.992644
C -3.14563 -0.406337 -0.664062
H -4.012467 0.253659 -0.556266
H -2.805168 -0.38173 -1.704044
H -3.406352 -1.432011 -0.38746
O -1.696596 1.345823 -0.375853
C -0.841486 2.211108 0.47596
H 0.218508 1.929457 0.389289
H -0.983302 3.22504 0.088696
H -1.178747 2.173941 1.524611
C 2.613441 0.10056 -0.04263
O 3.798652 -0.179582 -0.355527
O 2.071133 1.2499 0.180185
21
G: 25 x 25 i: 24 j: 14 E: 0.1758803451739368
C -1.996022 0.084823 0.144746
H -2.302644 0.214519 1.195947
H 0.428638 0.424126 -0.485871
C -0.892211 -1.003344 0.168507
O -1.166725 -2.144525 0.60429
N 0.310993 -0.555899 -0.215627
C 1.602447 -1.110922 0.193661
H 1.859197 -1.897603 -0.52113
H 1.636364 -1.528644 1.209294
C -3.18881 -0.43208 -0.667708
H -4.063751 0.2121 -0.535669
H -2.909635 -0.440579 -1.726028
H -3.40482 -1.451798 -0.337996
O -1.594566 1.356226 -0.440603
C -0.888123 2.244082 0.513498
H 0.156765 1.935039 0.658684
H -0.912857 3.236878 0.054114
H -1.422012 2.27873 1.476858
C 2.656883 0.076781 0.008572
O 3.744995 -0.24083 -0.540416
O 2.140398 1.248191 0.17092
21
G: 25 x 25 i: 24 j: 15 E: 0.28831916945637204
C -2.012942 0.124905 0.048905
H -2.355806 0.336437 1.074945
H 0.349232 0.32473 -0.670918
C -0.923806 -0.963692 0.232508
O -1.225765 -2.056024 0.761732
N 0.274068 -0.601834 -0.256613
C 1.56859 -1.116443 0.212478
H 1.88667 -2.008331 -0.333065
H 1.492808 -1.350298 1.283212
C -3.17813 -0.420005 -0.784615
H -4.045416 0.246036 -0.732759
H -2.852616 -0.499703 -1.826882
H -3.430392 -1.413511 -0.403571
O -1.458349 1.376611 -0.452396
C -0.834595 2.199931 0.617494
H 0.141066 1.793707 0.930314
H -0.691867 3.18801 0.169003
H -1.516724 2.287586 1.479011
C 2.624261 0.051529 -0.066712
O 3.721759 -0.295869 -0.575385
O 2.167893 1.231636 0.174381
21
G: 25 x 25 i: 23 j: 15 E: 0.22309546534779656
C -2.036732 0.094788 0.004959
H -2.526433 0.274139 0.975235
H 0.286959 0.261614 -0.793049
C -0.910599 -0.917098 0.323193
O -1.153002 -1.931267 1.012268
N 0.249214 -0.626598 -0.296279
C 1.560057 -1.106085 0.170168
H 1.894921 -1.991739 -0.376347
H 1.4766 -1.346851 1.238084
C -3.039357 -0.517715 -0.981611
H -3.918015 0.126074 -1.091458
H -2.549343 -0.621427 -1.954908
H -3.33121 -1.505048 -0.611775
O -1.507837 1.379375 -0.429327
C -0.899742 2.152644 0.688671
H 0.098371 1.763389 0.950734
H -0.806775 3.174817 0.308922
H -1.571412 2.149819 1.562391
C 2.603719 0.071929 -0.094228
O 3.707328 -0.265511 -0.598702
O 2.145731 1.246231 0.165662
21
G: 25 x 25 i: 22 j: 15 E: 0.18898116324089642
C -2.058548 0.032558 -0.053461
H -2.696669 0.148959 0.835981
H 0.251564 0.194752 -0.861385
C -0.894306 -0.870065 0.411243
O -1.071122 -1.777926 1.250162
N 0.235254 -0.656201 -0.298832
C 1.560833 -1.075086 0.190226
H 1.915776 -1.978853 -0.312485
H 1.474887 -1.267024 1.267433
C -2.838951 -0.637946 -1.192542
H -3.699921 -0.022932 -1.473906
H -2.172246 -0.735571 -2.054619
H -3.169889 -1.630826 -0.87312
O -1.591919 1.364023 -0.40932
C -1.01384 2.092583 0.753448
H 0.019874 1.762249 0.950727
H -1.012988 3.146236 0.457416
H -1.655094 1.96628 1.640443
C 2.581596 0.107552 -0.122073
O 3.69461 -0.230429 -0.606011
O 2.103084 1.283402 0.089455
21
G: 25 x 25 i: 21 j: 15 E: 0.19415157350704249
C -2.069409 -0.056094 -0.134129
H -2.831836 -0.046382 0.659775
H 0.264239 0.127545 -0.886064
C -0.880368 -0.82825 0.475046
O -1.015195 -1.607822 1.439779
N 0.243121 -0.691704 -0.273199
C 1.573113 -1.015827 0.280808
H 1.958711 -1.959142 -0.114792
H 1.473175 -1.090573 1.371157
C -2.596255 -0.748892 -1.397162
H -3.432426 -0.176007 -1.811139
H -1.787996 -0.786054 -2.132528
H -2.919472 -1.767773 -1.161659
O -1.713538 1.333718 -0.384061
C -1.155889 2.006317 0.81887
H -0.081631 1.781327 0.921881
H -1.293725 3.077355 0.639308
H -1.718507 1.716387 1.720319
C 2.563594 0.154511 -0.143291
O 3.695887 -0.19365 -0.570882
O 2.040209 1.329587 -0.071677
21
G: 25 x 25 i: 20 j: 15 E: 0.2548165523330681
C -2.06389 -0.157588 -0.223524
H -2.903715 -0.302893 0.473276
H 0.324844 0.065483 -0.887384
C -0.865315 -0.801928 0.50169
O -0.992268 -1.449391 1.560162
N 0.275609 -0.729175 -0.236791
C 1.592862 -0.930522 0.408272
H 2.018114 -1.906944 0.163745
H 1.457769 -0.850858 1.494535
C -2.352242 -0.804074 -1.581419
H -3.188249 -0.284275 -2.060846
H -1.465576 -0.71206 -2.212923
H -2.597041 -1.863837 -1.456007
O -1.881005 1.287058 -0.330435
C -1.286671 1.892599 0.886483
H -0.189418 1.800514 0.859724
H -1.573478 2.94891 0.853992
H -1.701125 1.43493 1.798047
C 2.551807 0.205059 -0.154185
O 3.711673 -0.141727 -0.496945
O 1.965265 1.348308 -0.281848
21
G: 25 x 25 i: 19 j: 15 E: 0.349922750987389
C -2.04884 -0.251009 -0.316352
H -2.918571 -0.611657 0.251966
H 0.407065 0.026698 -0.886992
C -0.852473 -0.818074 0.472665
O -1.001913 -1.382132 1.576307
N 0.320825 -0.752455 -0.214273
C 1.606144 -0.839828 0.519481
H 2.068389 -1.823929 0.414904
H 1.418272 -0.631891 1.580797
C -2.116681 -0.70924 -1.77417
H -2.981587 -0.242656 -2.257188
H -1.211839 -0.394732 -2.298513
H -2.205398 -1.799168 -1.832569
O -2.102872 1.210859 -0.185625
C -1.375206 1.746593 0.987923
H -0.293547 1.79486 0.789755
H -1.775916 2.75518 1.135237
H -1.569821 1.145505 1.888425
C 2.546223 0.254678 -0.146157
O 3.732313 -0.071307 -0.402837
O 1.905245 1.336361 -0.456127
21
G: 25 x 25 i: 18 j: 15 E: 0.42036268934862164
C -2.022775 -0.112275 -0.513115
H -2.887178 -0.782849 -0.433828
H 0.483295 0.365759 -0.814233
C -0.84901 -0.969833 0.000293
O -1.047162 -1.940834 0.761794
N 0.362203 -0.611504 -0.499761
C 1.601759 -0.950993 0.23664
H 2.092217 -1.839267 -0.166941
H 1.355187 -1.114256 1.294167
C -1.872494 0.420817 -1.94019
H -2.776494 0.97628 -2.21068
H -1.025067 1.108789 -1.993511
H -1.716036 -0.397871 -2.650571
O -2.352102 0.939491 0.472283
C -1.432308 1.037073 1.62646
H -0.41585 1.349112 1.343436
H -1.889335 1.791916 2.275159
H -1.376714 0.081737 2.167698
C 2.543073 0.314143 0.024093
O 3.748119 0.111592 -0.263525
O 1.877532 1.428198 0.039764
21
G: 25 x 25 i: 17 j: 15 E: 0.44012847642807174
C -1.957666 0.159481 -0.617424
H -2.805201 -0.370801 -1.063348
H 0.547084 0.576078 -0.711085
C -0.846856 -0.905662 -0.459422
O -1.126602 -2.073972 -0.117858
N 0.40139 -0.445232 -0.733869
C 1.587912 -1.012833 -0.055186
H 2.127855 -1.729443 -0.677318
H 1.270962 -1.497568 0.878012
C -1.585231 1.406229 -1.428161
H -2.479583 2.02252 -1.56624
H -0.851414 2.002644 -0.875572
H -1.168145 1.136938 -2.404093
O -2.512256 0.446305 0.722691
C -1.528487 0.313084 1.819168
H -0.575541 0.83371 1.638878
H -2.029469 0.73769 2.69552
H -1.3092 -0.747842 2.003699
C 2.513728 0.26104 0.202468
O 3.739017 0.161005 -0.047729
O 1.820157 1.319747 0.499144
21
G: 25 x 25 i: 16 j: 15 E: 0.4589523138020013
C -1.874947 0.257749 -0.670025
H -2.680437 -0.14601 -1.292885
H 0.606311 0.527181 -0.916879
C -0.810404 -0.866316 -0.549518
O -1.13879 -2.008432 -0.169008
N 0.454048 -0.486093 -0.892106
C 1.611239 -1.044233 -0.147135
H 2.235333 -1.694674 -0.763305
H 1.230602 -1.601663 0.717557
C -1.381816 1.611338 -1.196467
H -2.235198 2.294265 -1.255769
H -0.646666 2.035769 -0.501602
H -0.926916 1.511359 -2.188506
O -2.579013 0.313277 0.623858
C -1.660819 0.148683 1.775198
H -0.692322 0.658692 1.64234
H -2.193394 0.568299 2.635436
H -1.466773 -0.918232 1.941994
C 2.458294 0.243188 0.27404
O 3.703316 0.197129 0.121873
O 1.707216 1.256177 0.587002
21
G: 25 x 25 i: 15 j: 15 E: 0.472350008207286
C -1.786854 0.243986 -0.747702
H -2.527124 -0.137535 -1.461373
H 0.662237 0.294103 -1.382939
C -0.73783 -0.883211 -0.52073
O -1.063483 -1.933771 0.068394
N 0.516052 -0.640006 -1.01395
C 1.687233 -1.060388 -0.203626
H 2.417974 -1.619889 -0.791925
H 1.299684 -1.680624 0.610748
C -1.208308 1.593639 -1.200113
H -2.018207 2.329243 -1.201141
H -0.428768 1.903995 -0.491582
H -0.787304 1.53195 -2.212573
O -2.625199 0.295861 0.45532
C -1.840599 0.197363 1.710404
H -0.8357 0.643115 1.621991
H -2.427454 0.727817 2.468892
H -1.726485 -0.856354 1.986563
C 2.374512 0.279785 0.329705
O 3.629118 0.333011 0.248921
O 1.538298 1.194544 0.695287
21
G: 25 x 25 i: 14 j: 15 E: 0.4656868351466983
C -1.703322 0.196442 -0.814705
H -2.336212 -0.208774 -1.615455
H 0.716299 0.110288 -1.609859
C -0.635469 -0.880052 -0.463699
O -0.918378 -1.835152 0.285473
N 0.588833 -0.741101 -1.071856
C 1.784729 -1.054527 -0.249761
H 2.581712 -1.502401 -0.847234
H 1.444612 -1.746326 0.525518
C -1.103251 1.559417 -1.209759
H -1.912538 2.295683 -1.216181
H -0.338692 1.833561 -0.470326
H -0.65744 1.527598 -2.213775
O -2.684077 0.213512 0.267831
C -2.068742 0.244138 1.618009
H -1.042889 0.643151 1.60444
H -2.718311 0.877033 2.23479
H -2.031455 -0.772928 2.019406
C 2.310616 0.314783 0.380268
O 3.555383 0.50147 0.33345
O 1.380288 1.101371 0.80444
21
G: 25 x 25 i: 13 j: 15 E: 0.4634881815090921
C -1.625677 0.170292 -0.853479
H -2.134753 -0.244306 -1.734848
H 0.754461 -0.011427 -1.734128
C -0.541402 -0.850268 -0.409543
O -0.782499 -1.72156 0.444703
N 0.647505 -0.805777 -1.108594
C 1.866613 -1.042115 -0.291778
H 2.697571 -1.391003 -0.908411
H 1.58779 -1.79142 0.453123
C -1.039571 1.566579 -1.15896
H -1.865603 2.284475 -1.17035
H -0.306123 1.815842 -0.380793
H -0.554153 1.589428 -2.144691
O -2.723314 0.090019 0.099372
C -2.284675 0.248586 1.508882
H -1.247785 0.602628 1.586912
H -2.969255 0.966159 1.979828
H -2.347225 -0.722182 2.008284
C 2.266349 0.331201 0.415184
O 3.489319 0.633263 0.388378
O 1.266833 0.997852 0.885471
21
G: 25 x 25 i: 12 j: 15 E: 0.5104911888465722
C -1.557086 0.195599 -0.860166
H -1.928384 -0.183884 -1.822939
H 0.773768 -0.062611 -1.792392
C -0.474425 -0.79604 -0.36361
O -0.696655 -1.624579 0.533703
N 0.678561 -0.83168 -1.130806
C 1.919455 -1.036856 -0.332675
H 2.755728 -1.323901 -0.973474
H 1.686526 -1.823987 0.388497
C -1.00301 1.631999 -1.016965
H -1.848356 2.32782 -1.012043
H -0.301063 1.831997 -0.197228
H -0.476675 1.744911 -1.974897
O -2.749727 -0.031628 -0.061541
C -2.505205 0.194641 1.385193
H -1.472482 0.503587 1.588142
H -3.204112 0.967831 1.733515
H -2.687237 -0.744313 1.914785
C 2.263502 0.321941 0.430945
O 3.470397 0.684405 0.406616
O 1.237607 0.911379 0.947139
21
G: 25 x 25 i: 11 j: 15 E: 0.5864388771569793
C -1.540579 0.317194 -0.794632
H -1.677232 0.131637 -1.867953
H 0.756955 0.092188 -1.693251
C -0.488103 -0.700978 -0.29416
O -0.70292 -1.547402 0.594254
N 0.658486 -0.692157 -1.051434
C 1.925588 -1.046219 -0.368007
H 2.663733 -1.419045 -1.081822
H 1.665488 -1.813526 0.3656
C -1.021234 1.763966 -0.54585
H -1.877193 2.421971 -0.362398
H -0.298189 1.766152 0.283802
H -0.503141 2.134378 -1.440229
O -2.871689 -0.079087 -0.349589
C -3.043993 -0.010529 1.109439
H -2.907171 1.010844 1.493665
H -4.078587 -0.323489 1.290282
H -2.342542 -0.682651 1.603409
C 2.493886 0.251611 0.375472
O 3.73192 0.462541 0.241475
O 1.597075 0.923494 0.99828
21
G: 25 x 25 i: 10 j: 15 E: 0.4097370471317845
C -1.469981 0.597179 -0.464954
H -1.136085 0.958463 -1.443542
H 0.922058 0.435573 -0.887894
C -0.622054 -0.650153 -0.123506
O -1.05126 -1.639294 0.511925
N 0.648532 -0.517971 -0.599006
C 1.802286 -1.026117 0.186028
H 2.236819 -1.930901 -0.242928
H 1.476502 -1.221364 1.215728
C -1.160643 1.662183 0.621224
H -1.519109 1.306794 1.593875
H -0.072496 1.805896 0.693816
H -1.66368 2.604944 0.380428
O -2.845727 0.25623 -0.811528
C -3.632814 -0.29288 0.299409
H -3.88412 0.472915 1.050285
H -4.561965 -0.652167 -0.157487
H -3.093399 -1.113724 0.773773
C 2.876673 0.155924 0.098775
O 4.069514 -0.160547 -0.135245
O 2.326843 1.32893 0.12424
21
G: 25 x 25 i: 9 j: 15 E: 0.4580232350872393
C -1.446283 0.602005 -0.41795
H -1.046734 0.985113 -1.362759
H 0.881051 0.328757 -1.019202
C -0.589665 -0.616184 -0.021315
O -0.979136 -1.508956 0.765421
N 0.629656 -0.595611 -0.640462
C 1.822716 -1.058491 0.122702
H 2.292492 -1.931853 -0.333536
H 1.506357 -1.293994 1.145571
C -1.225875 1.652616 0.695994
H -1.606634 1.267736 1.648254
H -0.138593 1.805509 0.789847
H -1.733926 2.591729 0.451856
O -2.76871 0.215407 -0.904467
C -3.639651 -0.343485 0.13838
H -3.990839 0.429378 0.840615
H -4.504894 -0.754418 -0.394026
H -3.115271 -1.125103 0.690939
C 2.84562 0.170309 0.065579
O 4.048707 -0.0968 -0.183786
O 2.255166 1.318574 0.138499
21
G: 25 x 25 i: 8 j: 15 E: 0.5573918269110436
C -1.424024 0.565871 -0.490379
H -1.034209 0.852493 -1.472829
H 0.766529 -0.082595 -1.399101
C -0.51565 -0.53542 0.081041
O -0.807917 -1.164965 1.124502
N 0.593351 -0.785563 -0.680767
C 1.853102 -1.130202 0.029531
H 2.39927 -1.925363 -0.482018
H 1.563734 -1.443998 1.0364
C -1.292996 1.753116 0.482961
H -1.689913 1.465887 1.461998
H -0.211606 1.935715 0.593221
H -1.820949 2.636659 0.108822
O -2.709155 0.023122 -0.943957
C -3.565732 -0.442136 0.153719
H -4.013415 0.396271 0.710611
H -4.367371 -1.017451 -0.323373
H -2.997234 -1.066419 0.846467
C 2.755149 0.195863 0.054639
O 3.974133 0.033417 -0.227122
O 2.092015 1.271574 0.27359
21
G: 25 x 25 i: 7 j: 15 E: 0.618836983689107
C -1.379439 0.54362 -0.544459
H -0.981657 0.74861 -1.543406
H 0.668514 -0.503562 -1.520113
C -0.428262 -0.429293 0.171101
O -0.641326 -0.80072 1.348427
N 0.55994 -0.963642 -0.617185
C 1.866758 -1.190212 0.048671
H 2.450859 -1.952938 -0.469923
H 1.638914 -1.491759 1.073748
C -1.400519 1.835077 0.285236
H -1.7765 1.609793 1.287826
H -0.351906 2.143588 0.384708
H -2.018906 2.603981 -0.189743
O -2.610416 -0.153303 -0.960553
C -3.44234 -0.577558 0.169804
H -3.992614 0.265849 0.616393
H -4.163931 -1.290758 -0.245218
H -2.834003 -1.048152 0.946498
C 2.653487 0.211292 0.027463
O 3.872229 0.149743 -0.297584
O 1.907455 1.217191 0.28879
21
G: 25 x 25 i: 6 j: 15 E: 0.6700068177742651
C -1.296031 0.578803 -0.503838
H -0.810984 0.824627 -1.451847
H 0.59886 -0.756981 -1.439597
C -0.374833 -0.367053 0.281643
O -0.580677 -0.616434 1.490726
N 0.523022 -1.094704 -0.479484
C 1.86551 -1.20864 0.151051
H 2.46614 -1.987168 -0.323459
H 1.693476 -1.426092 1.207734
C -1.50123 1.848097 0.325625
H -1.883602 1.57377 1.312897
H -0.503594 2.279132 0.453942
H -2.186914 2.53934 -0.175617
O -2.438477 -0.194257 -1.042266
C -3.320464 -0.699281 0.011504
H -3.967068 0.091621 0.423691
H -3.950097 -1.460602 -0.463485
H -2.746566 -1.135678 0.834928
C 2.563556 0.224837 -0.032209
O 3.769279 0.218315 -0.405471
O 1.751144 1.199924 0.153832
21
G: 25 x 25 i: 5 j: 15 E: 0.7026772287499625
C -1.212051 0.609373 -0.454241
H -0.619339 0.899919 -1.322224
H 0.491871 -0.994744 -1.291489
C -0.334249 -0.300837 0.415882
O -0.53453 -0.436193 1.641762
N 0.474996 -1.200149 -0.290039
C 1.860821 -1.198236 0.261029
H 2.467434 -1.99587 -0.173154
H 1.764537 -1.317813 1.342972
C -1.614545 1.84459 0.347346
H -2.038815 1.536078 1.306693
H -0.684278 2.385547 0.539679
H -2.326551 2.458985 -0.213748
O -2.227073 -0.23606 -1.130114
C -3.165689 -0.826672 -0.177561
H -3.917436 -0.099536 0.168681
H -3.675088 -1.636751 -0.712288
H -2.649293 -1.223716 0.704129
C 2.466804 0.233831 -0.102154
O 3.642734 0.269719 -0.554694
O 1.6008 1.179615 0.035448
21
G: 25 x 25 i: 4 j: 15 E: 0.7405459688889096
C -1.207395 0.606233 -0.463111
H -0.538459 0.898938 -1.271765
H 0.343123 -1.207424 -1.017997
C -0.332711 -0.138266 0.556828
O -0.48737 -0.029886 1.788743
N 0.40609 -1.196256 0.002823
C 1.826522 -1.124831 0.450487
H 2.395186 -1.997722 0.122203
H 1.804479 -1.056319 1.541346
C -1.833927 1.83574 0.18362
H -2.309264 1.563877 1.129981
H -1.003396 2.513488 0.403172
H -2.551979 2.309772 -0.493488
O -2.027405 -0.402096 -1.175955
C -2.952684 -1.076398 -0.270603
H -3.81849 -0.445282 -0.014177
H -3.307406 -1.969015 -0.798381
H -2.463134 -1.371177 0.666957
C 2.423124 0.211084 -0.184037
O 3.566285 0.148075 -0.711103
O 1.582133 1.190567 -0.142524
21
G: 25 x 25 i: 3 j: 15 E: 0.6603833712943015
C -1.356953 0.437655 -0.581912
H -0.628376 0.683485 -1.361501
H 0.264627 -1.302027 -0.261911
C -0.463975 0.317787 0.663954
O -0.536979 1.111566 1.618045
N 0.3633 -0.78806 0.614781
C 1.781088 -0.534041 0.972491
H 2.295527 -1.45458 1.257524
H 1.766655 0.181534 1.798964
C -2.415701 1.525173 -0.41403
H -3.033908 1.333555 0.468685
H -1.914476 2.484055 -0.261386
H -3.046414 1.570303 -1.307233
O -1.792454 -0.905361 -1.024742
C -2.411586 -1.676694 0.047033
H -3.307697 -1.189189 0.460198
H -2.705309 -2.632102 -0.401604
H -1.703151 -1.859607 0.865668
C 2.466461 0.109703 -0.329022
O 3.602748 -0.342237 -0.642717
O 1.710864 0.963968 -0.914581
21
G: 25 x 25 i: 2 j: 15 E: 0.5924649497919745
C -1.411484 0.305143 -0.618441
H -0.729989 0.492073 -1.458095
H 0.210527 -1.263732 0.160788
C -0.464006 0.56965 0.563654
O -0.491398 1.632612 1.208245
N 0.33967 -0.516457 0.845395
C 1.769298 -0.194023 1.082637
H 2.278013 -0.999416 1.617043
H 1.785589 0.734999 1.658916
C -2.617094 1.24116 -0.613956
H -3.262004 1.05162 0.251035
H -2.249014 2.265989 -0.528426
H -3.198772 1.122223 -1.533256
O -1.606375 -1.147692 -0.80145
C -2.232432 -1.785038 0.355232
H -3.25182 -1.416356 0.542727
H -2.281741 -2.852874 0.117244
H -1.6284 -1.63932 1.259874
C 2.432859 0.023161 -0.364111
O 3.556071 -0.522911 -0.549408
O 1.677585 0.68295 -1.161851
21
G: 25 x 25 i: 1 j: 15 E: 0.6039638873608055
C -1.463088 0.240033 -0.611452
H -0.878594 0.415609 -1.523862
H 0.17988 -1.172254 0.401378
C -0.440721 0.712208 0.439456
O -0.426569 1.886165 0.849899
N 0.320895 -0.319956 0.948875
C 1.760688 0.013232 1.108605
H 2.263573 -0.699363 1.765852
H 1.803395 1.027514 1.514619
C -2.75118 1.058259 -0.569199
H -3.332191 0.842714 0.334581
H -2.460489 2.11066 -0.529063
H -3.370822 0.865064 -1.450339
O -1.488529 -1.233176 -0.685451
C -2.101396 -1.850674 0.492829
H -3.176135 -1.63186 0.571683
H -1.968083 -2.92984 0.365752
H -1.598672 -1.526184 1.412808
C 2.400387 -0.035154 -0.365018
O 3.511635 -0.625333 -0.472371
O 1.63643 0.486119 -1.251685
21
G: 25 x 25 i: 0 j: 15 E: 0.6936937943191879
C -1.414457 0.219784 -0.621675
H -0.909617 0.412777 -1.575866
H 0.250707 -1.113256 0.485487
C -0.378618 0.755211 0.387365
O -0.326451 1.970741 0.646774
N 0.369417 -0.234493 0.997109
C 1.808579 0.125006 1.11906
H 2.237734 -0.609239 1.804008
H 1.953828 1.145292 1.48404
C -2.726417 0.997616 -0.524778
H -3.249806 0.786185 0.414343
H -2.455513 2.056384 -0.522517
H -3.389916 0.77233 -1.365632
O -1.528077 -1.248868 -0.621195
C -2.277333 -1.761851 0.529637
H -3.344599 -1.505455 0.480549
H -2.171281 -2.849907 0.489514
H -1.858759 -1.388698 1.473228
C 2.433821 -0.057563 -0.349585
O 3.381654 -0.890227 -0.444723
O 1.682606 0.451583 -1.254238
21
G: 25 x 25 i: 0 j: 16 E: 0.7951498540132889
C -1.30566 0.207775 -0.631697
H -0.725036 0.382708 -1.546875
H 0.287566 -1.201581 0.483979
C -0.341071 0.677261 0.476121
O -0.250692 1.88581 0.756072
N 0.416227 -0.340937 1.023993
C 1.863081 0.014806 1.137569
H 2.379563 -0.671639 1.811833
H 1.902854 1.047078 1.491691
C -2.569146 1.067116 -0.627774
H -3.171555 0.89022 0.270323
H -2.232182 2.10642 -0.60246
H -3.182752 0.883433 -1.515354
O -1.666979 -1.220581 -0.60534
C -2.587133 -1.554912 0.487145
H -3.587862 -1.125572 0.336005
H -2.663904 -2.646647 0.48517
H -2.192896 -1.218668 1.455054
C 2.42598 -0.117414 -0.360954
O 3.363638 -0.945095 -0.542825
O 1.723571 0.551494 -1.197879
21
G: 25 x 25 i: 1 j: 16 E: 0.6965499025118334
C -1.244111 0.218864 -0.626894
H -0.536013 0.356645 -1.455954
H 0.307947 -1.307322 0.34927
C -0.37355 0.54472 0.600768
O -0.311844 1.695596 1.067119
N 0.435689 -0.509928 0.977639
C 1.872938 -0.136638 1.126712
H 2.412363 -0.887635 1.708086
H 1.889977 0.843413 1.608164
C -2.415256 1.191853 -0.732796
H -3.129045 1.049161 0.086353
H -2.003057 2.19915 -0.637353
H -2.936478 1.080236 -1.688549
O -1.760928 -1.161725 -0.683915
C -2.695424 -1.46197 0.403466
H -3.632351 -0.892229 0.322161
H -2.920689 -2.52964 0.315347
H -2.237832 -1.264683 1.38157
C 2.432314 -0.063393 -0.376594
O 3.388498 -0.837535 -0.66319
O 1.718511 0.698888 -1.120082
21
G: 25 x 25 i: 2 j: 16 E: 0.6803363183607871
C -1.193346 0.309832 -0.598277
H -0.412648 0.507777 -1.345372
H 0.349847 -1.409957 -0.010502
C -0.406612 0.289376 0.722501
O -0.39039 1.254086 1.506019
N 0.456791 -0.788218 0.793993
C 1.878125 -0.425386 1.05698
H 2.437196 -1.282132 1.440164
H 1.857616 0.399786 1.772051
C -2.24338 1.417207 -0.582012
H -2.98954 1.244537 0.201215
H -1.737982 2.357374 -0.350244
H -2.744535 1.485236 -1.552491
O -1.891141 -0.951438 -0.921672
C -2.802924 -1.379782 0.137332
H -3.630571 -0.672749 0.296034
H -3.21588 -2.338454 -0.193903
H -2.267806 -1.520319 1.085468
C 2.452513 0.043556 -0.366014
O 3.435758 -0.605011 -0.82137
O 1.727086 0.954564 -0.903406
21
G: 25 x 25 i: 3 j: 16 E: 0.7483306324520527
C -1.150281 0.534297 -0.442233
H -0.348843 0.955167 -1.059645
H 0.420119 -1.24605 -0.797292
C -0.422815 -0.200223 0.695347
O -0.471207 0.170646 1.880408
N 0.485028 -1.129755 0.215869
C 1.885397 -0.931749 0.683442
H 2.468633 -1.850035 0.582129
H 1.817476 -0.607364 1.723979
C -2.032771 1.636933 0.138297
H -2.714801 1.233936 0.893598
H -1.393713 2.372857 0.632264
H -2.604682 2.115475 -0.662734
O -2.058383 -0.319609 -1.239781
C -2.916535 -1.155083 -0.407688
H -3.567909 -0.567696 0.257092
H -3.543353 -1.726397 -1.101246
H -2.324652 -1.848083 0.205063
C 2.470235 0.225842 -0.259286
O 3.485627 -0.064799 -0.951352
O 1.718606 1.265808 -0.26822
21
G: 25 x 25 i: 4 j: 16 E: 0.8563582444312487
C -1.081669 0.59772 -0.415457
H -0.343932 1.039191 -1.085769
H 0.526697 -1.026523 -1.304333
C -0.373054 -0.480866 0.423841
O -0.532166 -0.590007 1.661422
N 0.529373 -1.264756 -0.309476
C 1.910245 -1.183205 0.261201
H 2.564076 -1.933939 -0.18855
H 1.806381 -1.328532 1.338318
C -1.607068 1.668309 0.535632
H -2.116244 1.20815 1.386845
H -0.730958 2.202588 0.915303
H -2.275345 2.352464 0.003739
O -2.251887 0.100507 -1.177301
C -3.085614 -0.789734 -0.379643
H -3.392356 -0.341569 0.576972
H -3.978976 -0.990928 -0.98202
H -2.572081 -1.736718 -0.160629
C 2.407197 0.291726 -0.093459
O 3.448365 0.397446 -0.79851
O 1.55905 1.190229 0.273611
21
G: 25 x 25 i: 5 j: 16 E: 0.8060913389144844
C -1.094191 0.52215 -0.518061
H -0.470639 0.945846 -1.306278
H 0.734197 -0.851325 -1.512462
C -0.338995 -0.613099 0.188418
O -0.590179 -0.92484 1.370866
N 0.649656 -1.248948 -0.573756
C 1.968577 -1.199415 0.13302
H 2.699234 -1.850516 -0.351969
H 1.775769 -1.501271 1.16418
C -1.377772 1.600698 0.524115
H -1.818222 1.1453 1.415202
H -0.399682 2.009458 0.791928
H -2.036568 2.374107 0.115368
O -2.391582 0.087538 -1.091795
C -3.28822 -0.441876 -0.065996
H -3.748579 0.358152 0.535262
H -4.077171 -0.98422 -0.599743
H -2.763934 -1.118865 0.618874
C 2.406727 0.331267 0.035706
O 3.496141 0.590008 -0.545331
O 1.473276 1.124496 0.436599
21
G: 25 x 25 i: 6 j: 16 E: 0.7626001255812298
C -1.213617 0.444431 -0.646337
H -0.72847 0.769791 -1.570764
H 0.804674 -0.708349 -1.580063
C -0.378441 -0.635442 0.060142
O -0.621305 -0.961658 1.243379
N 0.676254 -1.152214 -0.669746
C 1.956889 -1.200978 0.095106
H 2.677128 -1.862087 -0.391096
H 1.700461 -1.541585 1.099644
C -1.27116 1.627264 0.322808
H -1.648638 1.282421 1.289577
H -0.231155 1.943549 0.458807
H -1.898099 2.433281 -0.072579
O -2.595105 0.029295 -0.975792
C -3.366413 -0.338226 0.213692
H -3.696886 0.546258 0.780989
H -4.24875 -0.874233 -0.154557
H -2.782009 -0.976214 0.884046
C 2.48574 0.313284 0.102774
O 3.618654 0.51818 -0.417042
O 1.602753 1.138017 0.531343
21
G: 25 x 25 i: 7 j: 16 E: 0.6977141421175475
C -1.300052 0.371716 -0.725797
H -0.915132 0.616579 -1.721013
H 0.835483 -0.566182 -1.620008
C -0.429033 -0.695093 -0.042031
O -0.664864 -1.078435 1.126602
N 0.692447 -1.064643 -0.742411
C 1.945535 -1.181965 0.051788
H 2.660084 -1.841468 -0.444864
H 1.649222 -1.561972 1.030952
C -1.16236 1.608718 0.173652
H -1.519382 1.361462 1.177982
H -0.085344 1.811636 0.248963
H -1.720276 2.45985 -0.230714
O -2.727179 0.033561 -0.87464
C -3.398794 -0.200747 0.407762
H -3.613622 0.740251 0.938637
H -4.346948 -0.691928 0.160174
H -2.789943 -0.836336 1.056031
C 2.532912 0.309301 0.156318
O 3.689351 0.485888 -0.321056
O 1.686378 1.145114 0.627918
21
G: 25 x 25 i: 8 j: 16 E: 0.6424141350416903
C -1.361377 0.325221 -0.770481
H -1.048954 0.524646 -1.801329
H 0.853862 -0.393067 -1.606098
C -0.491519 -0.772975 -0.135911
O -0.743386 -1.268221 0.986663
N 0.69646 -0.973988 -0.784574
C 1.919282 -1.148854 0.040913
H 2.625058 -1.825501 -0.445669
H 1.57936 -1.540653 1.00153
C -1.05449 1.566804 0.089209
H -1.413472 1.393532 1.108806
H 0.042263 1.657937 0.1456
H -1.527658 2.463502 -0.325127
O -2.810965 0.090193 -0.789974
C -3.401343 -0.056551 0.545822
H -3.503101 0.911743 1.060968
H -4.401185 -0.473985 0.379549
H -2.79713 -0.726757 1.160998
C 2.571001 0.308617 0.197193
O 3.748255 0.437579 -0.242409
O 1.759398 1.177067 0.672261
21
G: 25 x 25 i: 9 j: 16 E: 0.5945609076170513
C -1.413987 0.373308 -0.750944
H -1.123327 0.645965 -1.771632
H 0.882194 -0.03591 -1.398263
C -0.586982 -0.828285 -0.258638
O -0.916543 -1.556101 0.705052
N 0.682158 -0.810838 -0.767523
C 1.832155 -1.083928 0.138588
H 2.467077 -1.881507 -0.253262
H 1.408521 -1.363021 1.107249
C -0.980595 1.508449 0.206545
H -1.31811 1.274054 1.221918
H 0.12339 1.538567 0.221778
H -1.406337 2.468167 -0.105783
O -2.870135 0.240246 -0.72898
C -3.428576 0.017923 0.610877
H -3.411051 0.932988 1.223536
H -4.471837 -0.274168 0.445087
H -2.880945 -0.774226 1.124343
C 2.67174 0.276796 0.208269
O 3.872616 0.211365 -0.173958
O 1.96316 1.299412 0.526574
21
G: 25 x 25 i: 10 j: 16 E: 0.5685196282411198
C -1.457794 0.41186 -0.758186
H -1.223064 0.722304 -1.782443
H 0.901232 0.232194 -1.132951
C -0.638657 -0.842416 -0.38022
O -1.025992 -1.742251 0.396482
N 0.675481 -0.67394 -0.714963
C 1.743264 -1.013846 0.269156
H 2.285381 -1.916583 -0.017917
H 1.275105 -1.144192 1.251274
C -0.951401 1.501081 0.226298
H -1.234761 1.224063 1.24794
H 0.148678 1.555752 0.190879
H -1.40207 2.469779 -0.015444
O -2.908659 0.328333 -0.626703
C -3.38181 0.028569 0.730073
H -3.260695 0.884594 1.412233
H -4.45173 -0.181681 0.619853
H -2.858073 -0.840558 1.130099
C 2.731462 0.240263 0.225552
O 3.928081 0.020337 -0.098344
O 2.109225 1.363435 0.356712
21
G: 25 x 25 i: 11 j: 16 E: 0.6242554802574887
C -1.512109 0.413826 -0.80496
H -1.383332 0.692224 -1.856792
H 0.903739 0.353069 -0.981419
C -0.663464 -0.843372 -0.468494
O -1.078659 -1.833993 0.170871
N 0.660369 -0.586236 -0.651701
C 1.686387 -0.970698 0.354117
H 2.165341 -1.919775 0.108719
H 1.215685 -1.022834 1.343632
C -0.952776 1.548277 0.103263
H -1.193091 1.316402 1.146977
H 0.141405 1.625666 0.040618
H -1.428434 2.499906 -0.156977
O -2.937869 0.345599 -0.50149
C -3.269067 0.021238 0.889338
H -3.044334 0.848951 1.579878
H -4.352152 -0.146073 0.889104
H -2.743789 -0.880974 1.203934
C 2.752796 0.21612 0.250155
O 3.933415 -0.08664 -0.060399
O 2.188835 1.378126 0.303982
21
G: 25 x 25 i: 12 j: 16 E: 0.6521653118161339
C -1.597261 0.482269 -0.731988
H -1.365493 0.745171 -1.771026
H 0.887258 0.926668 0.052065
C -0.580065 -0.588113 -0.237836
O -0.895537 -1.791067 -0.070568
N 0.598844 -0.060133 0.121655
C 1.771069 -0.801323 0.624035
H 1.781245 -1.808599 0.206687
H 1.760213 -0.833514 1.721866
C -1.499635 1.757292 0.133202
H -1.565741 1.510538 1.197443
H -0.553869 2.277879 -0.037053
H -2.326033 2.425066 -0.131964
O -3.003024 0.094464 -0.656218
C -3.423945 -0.388693 0.662358
H -3.350343 0.388615 1.440088
H -4.478057 -0.662287 0.543009
H -2.832807 -1.260235 0.9471
C 2.989361 0.088352 0.082383
O 3.825313 -0.454421 -0.685
O 2.81007 1.32764 0.385195
21
G: 25 x 25 i: 13 j: 16 E: 0.6788681002435624
C -1.646384 0.428317 -0.798729
H -1.578077 0.542684 -1.88769
H 0.812163 0.882962 0.126821
C -0.606356 -0.636035 -0.340517
O -0.904909 -1.852684 -0.266634
N 0.553464 -0.112973 0.080031
C 1.729109 -0.868841 0.550047
H 1.785736 -1.829007 0.036288
H 1.681316 -1.011651 1.638049
C -1.399232 1.800154 -0.141916
H -1.286139 1.698067 0.941856
H -0.495519 2.272002 -0.538178
H -2.257815 2.444602 -0.355451
O -3.036412 0.118948 -0.456538
C -3.222555 -0.307854 0.931269
H -2.90837 0.460066 1.656687
H -4.300318 -0.471015 1.040982
H -2.676383 -1.23482 1.1174
C 2.934982 0.106053 0.145283
O 3.814278 -0.330906 -0.640866
O 2.703513 1.302912 0.562838
21
G: 25 x 25 i: 14 j: 16 E: 0.703908299547038
C -1.701585 0.382714 -0.839207
H -1.799399 0.368831 -1.931594
H 0.736278 0.850665 0.177533
C -0.629487 -0.667441 -0.4298
O -0.902261 -1.892788 -0.438023
N 0.50469 -0.145582 0.054983
C 1.687443 -0.904074 0.500947
H 1.776921 -1.82714 -0.072727
H 1.619605 -1.119075 1.57591
C -1.358088 1.809882 -0.385067
H -1.160087 1.834041 0.691513
H -0.475981 2.190777 -0.908451
H -2.212099 2.45823 -0.603293
O -3.030546 0.160846 -0.250718
C -2.987135 -0.265955 1.14701
H -2.450105 0.448077 1.792339
H -4.032912 -0.312246 1.470107
H -2.51861 -1.249722 1.231339
C 2.877055 0.123473 0.188981
O 3.783681 -0.238792 -0.603873
O 2.605919 1.283864 0.679521
21
G: 25 x 25 i: 15 j: 16 E: 0.7277805312842247
C -1.767087 0.325022 -0.859802
H -2.033466 0.183059 -1.913268
H 0.655698 0.827036 0.193438
C -0.655659 -0.699549 -0.50363
O -0.894005 -1.9305 -0.568191
N 0.45167 -0.169553 0.031121
C 1.644588 -0.916592 0.468217
H 1.763056 -1.815919 -0.137038
H 1.564256 -1.172307 1.533373
C -1.365986 1.785191 -0.621998
H -1.091184 1.937684 0.427175
H -0.516524 2.069781 -1.250353
H -2.220877 2.427493 -0.85394
O -2.986642 0.204177 -0.036508
C -2.71495 -0.215783 1.336706
H -1.990609 0.440944 1.844549
H -3.676013 -0.153754 1.858595
H -2.335578 -1.241764 1.358858
C 2.815521 0.147724 0.214786
O 3.74274 -0.164634 -0.575431
O 2.510531 1.282024 0.744516
21
G: 25 x 25 i: 16 j: 16 E: 0.744867818959392
C -1.850618 0.210084 -0.856296
H -2.296516 -0.102714 -1.80579
H 0.567537 0.806059 0.146991
C -0.693358 -0.769115 -0.533578
O -0.888864 -2.007512 -0.583751
N 0.396255 -0.198442 -0.002609
C 1.604796 -0.905384 0.456769
H 1.759948 -1.804453 -0.140624
H 1.515545 -1.157672 1.522184
C -1.425306 1.678734 -0.929169
H -1.040144 2.009423 0.041243
H -0.646378 1.826894 -1.683333
H -2.297281 2.292171 -1.17607
O -2.898128 0.258563 0.190436
C -2.384027 -0.050885 1.523554
H -1.533477 0.587024 1.807531
H -3.217129 0.132777 2.210221
H -2.067514 -1.098009 1.586536
C 2.747641 0.1913 0.214978
O 3.695666 -0.098662 -0.559039
O 2.402184 1.31876 0.733832
21
G: 25 x 25 i: 17 j: 16 E: 0.597347735591029
C -2.076988 -0.104746 -0.368353
H -3.029464 -0.644718 -0.382062
H 0.342589 0.207385 -0.905743
C -0.954268 -1.129576 -0.087862
O -1.115648 -2.059325 0.728978
N 0.265196 -0.75258 -0.560075
C 1.493741 -1.039627 0.227229
H 2.019332 -1.919338 -0.148805
H 1.209569 -1.185737 1.276366
C -1.893282 0.687056 -1.668025
H -1.017578 1.339371 -1.583109
H -1.768268 0.021468 -2.528496
H -2.76753 1.32775 -1.821529
O -2.111021 0.987936 0.625642
C -0.835332 1.189288 1.351047
H 0.054129 1.256453 0.704009
H -0.974088 2.12874 1.896177
H -0.676627 0.371807 2.067619
C 2.384506 0.261881 0.009524
O 3.518089 0.12099 -0.515619
O 1.713743 1.347802 0.231591
21
G: 25 x 25 i: 18 j: 16 E: 0.5629559860844893
C -2.109652 -0.134706 -0.199162
H -3.020716 -0.616004 0.178906
H 0.287013 0.150064 -0.88577
C -0.941898 -1.06156 0.18928
O -1.034584 -1.853396 1.15034
N 0.232364 -0.767385 -0.433432
C 1.519084 -1.02896 0.267018
H 1.98581 -1.947871 -0.093631
H 1.315993 -1.103059 1.341692
C -2.229514 0.097883 -1.707056
H -1.328538 0.589426 -2.083075
H -2.374587 -0.847275 -2.240499
H -3.077779 0.763251 -1.89769
O -1.957151 1.257642 0.268185
C -0.790439 1.505605 1.147616
H 0.173862 1.386643 0.627714
H -0.913236 2.543768 1.473606
H -0.812107 0.844504 2.025227
C 2.432094 0.221163 -0.091189
O 3.517834 0.0046 -0.689064
O 1.831362 1.342617 0.1391
21
G: 25 x 25 i: 19 j: 16 E: 0.4743905364193779
C -2.099927 -0.055565 -0.057201
H -2.932437 -0.300547 0.619369
H 0.210706 0.095397 -0.906759
C -0.934793 -0.971775 0.363817
O -0.988424 -1.678052 1.390128
N 0.185772 -0.789819 -0.392303
C 1.518209 -1.098407 0.194402
H 1.943079 -1.998187 -0.25656
H 1.37981 -1.241433 1.271556
C -2.51851 -0.277224 -1.511422
H -1.666513 -0.107886 -2.173617
H -2.886866 -1.298166 -1.655137
H -3.305995 0.438487 -1.769267
O -1.748173 1.365944 -0.11952
C -0.742028 1.775192 0.891624
H 0.275111 1.483573 0.580045
H -0.818881 2.866391 0.940933
H -0.976748 1.349565 1.878672
C 2.44849 0.148653 -0.127422
O 3.488714 -0.066057 -0.80513
O 1.929094 1.267703 0.246284
21
G: 25 x 25 i: 20 j: 16 E: 0.35492115801389446
C -2.02634 0.060337 0.149754
H -2.623839 0.093309 1.074019
H 0.020003 0.041026 -1.134562
C -0.845471 -0.895037 0.417385
O -0.778892 -1.608137 1.436308
N 0.109568 -0.793233 -0.552356
C 1.498464 -1.218019 -0.268078
H 1.893332 -1.816444 -1.093358
H 1.445976 -1.802237 0.654791
C -2.87557 -0.452392 -1.017535
H -2.245597 -0.563622 -1.903516
H -3.315412 -1.423324 -0.768276
H -3.669362 0.270181 -1.233704
O -1.624313 1.350267 -0.399086
C -0.648731 2.040857 0.479625
H 0.332796 1.531972 0.48639
H -0.542534 3.042088 0.05
H -1.04763 2.126777 1.503755
C 2.414924 0.073572 -0.072575
O 3.388098 0.188486 -0.869103
O 2.000313 0.869009 0.84432
21
G: 25 x 25 i: 21 j: 16 E: 0.27993903889910143
C -1.977726 0.110679 0.226561
H -2.439952 0.18793 1.221874
H 0.019497 0.198158 -1.093721
C -0.845887 -0.934588 0.314722
O -0.822923 -1.818532 1.192737
N 0.11526 -0.700506 -0.619645
C 1.493067 -1.191235 -0.413193
H 1.879428 -1.65834 -1.323179
H 1.431113 -1.913425 0.405849
C -3.005745 -0.361914 -0.809354
H -2.500306 -0.485722 -1.771336
H -3.433752 -1.321055 -0.501435
H -3.798297 0.386227 -0.914251
O -1.579327 1.362779 -0.405335
C -0.591784 2.098651 0.42765
H 0.374018 1.563652 0.495658
H -0.450635 3.05656 -0.082677
H -1.006213 2.280451 1.432742
C 2.426744 0.042147 -0.017869
O 3.400791 0.271001 -0.787953
O 2.017242 0.688086 1.012663
21
G: 25 x 25 i: 22 j: 16 E: 0.2750732330077881
C -1.935138 0.136913 0.261049
H -2.25794 0.245217 1.30684
H 0.079462 0.280301 -1.036948
C -0.858569 -0.96945 0.212587
O -0.916543 -1.966581 0.960233
N 0.158601 -0.647512 -0.622524
C 1.518489 -1.179864 -0.413751
H 1.913733 -1.62397 -1.331607
H 1.428774 -1.930605 0.377001
C -3.114913 -0.31194 -0.611781
H -2.763225 -0.412129 -1.643388
H -3.480838 -1.280366 -0.257214
H -3.917614 0.431937 -0.578471
O -1.574823 1.363233 -0.440585
C -0.591196 2.161206 0.343988
H 0.377034 1.637343 0.45423
H -0.45314 3.082537 -0.230355
H -1.013059 2.407588 1.331781
C 2.465719 0.027189 0.033619
O 3.454896 0.262447 -0.714563
O 2.045252 0.654702 1.071358
21
G: 25 x 25 i: 23 j: 16 E: 0.31807812426268356
C -1.894356 0.145781 0.269784
H -2.063777 0.28437 1.348008
H 0.166918 0.316811 -0.978618
C -0.868549 -1.000041 0.110499
O -1.008777 -2.070317 0.739035
N 0.218096 -0.62574 -0.59811
C 1.558317 -1.18443 -0.34332
H 1.969803 -1.663378 -1.236265
H 1.438635 -1.91195 0.465517
C -3.200736 -0.295443 -0.401542
H -3.031798 -0.365663 -1.481017
H -3.475928 -1.279568 -0.010544
H -4.000142 0.42834 -0.212449
O -1.596505 1.351088 -0.496628
C -0.637892 2.22878 0.234919
H 0.345628 1.743705 0.38083
H -0.526877 3.114928 -0.397825
H -1.069371 2.524847 1.204594
C 2.512574 0.027426 0.083278
O 3.520852 0.221632 -0.65042
O 2.072442 0.70451 1.080868
21
G: 25 x 25 i: 24 j: 16 E: 0.3987181730208249
C -1.900029 0.199872 0.179709
H -2.013714 0.418398 1.252096
H 0.266903 0.252049 -0.914211
C -0.916244 -0.992838 0.102826
O -1.203252 -2.074052 0.65984
N 0.250282 -0.670427 -0.489944
C 1.547649 -1.257665 -0.110799
H 1.882012 -1.839335 -0.974367
H 1.471967 -1.896108 0.775222
C -3.254345 -0.21085 -0.406283
H -3.152155 -0.301436 -1.492461
H -3.524949 -1.182513 0.016729
H -4.024711 0.533844 -0.182816
O -1.433459 1.375935 -0.550401
C -0.572387 2.237846 0.30868
H 0.342662 1.714177 0.64044
H -0.306564 3.09147 -0.32177
H -1.146747 2.593592 1.178424
C 2.563433 -0.037533 0.101765
O 3.415005 0.122883 -0.818029
O 2.177313 0.784717 1.008207
21
G: 25 x 25 i: 24 j: 17 E: 0.486997766964123
C -1.900872 0.261093 0.0913
H -2.044153 0.557227 1.14123
H 0.22684 0.102475 -1.064985
C -0.939767 -0.95056 0.169323
O -1.278041 -1.970103 0.807664
N 0.206735 -0.752711 -0.514497
C 1.509046 -1.312321 -0.097006
H 1.906597 -2.002956 -0.846399
H 1.344522 -1.81663 0.85869
C -3.241609 -0.142835 -0.529097
H -3.09715 -0.301613 -1.602871
H -3.56073 -1.079098 -0.06193
H -3.997142 0.636051 -0.383553
O -1.243073 1.394617 -0.557579
C -0.43961 2.175375 0.426584
H 0.329362 1.56044 0.92822
H 0.041231 2.964793 -0.159236
H -1.106685 2.63085 1.175767
C 2.479697 -0.045298 0.042434
O 3.33204 0.098141 -0.878493
O 2.152681 0.740433 1.002822
21
G: 25 x 25 i: 23 j: 17 E: 0.39813282866816735
C -1.939796 0.229909 0.058559
H -2.263014 0.517954 1.069788
H 0.168926 0.049172 -1.112493
C -0.906822 -0.898583 0.283412
O -1.163634 -1.844663 1.056923
N 0.181673 -0.769764 -0.506792
C 1.506216 -1.299459 -0.119157
H 1.889655 -1.991882 -0.874331
H 1.371093 -1.796165 0.844692
C -3.135925 -0.282841 -0.752441
H -2.803057 -0.485659 -1.775575
H -3.492997 -1.210237 -0.294549
H -3.937344 0.46263 -0.779998
O -1.295835 1.406471 -0.517036
C -0.526327 2.152843 0.519127
H 0.281422 1.546707 0.967506
H -0.095518 3.008753 -0.008989
H -1.211269 2.513524 1.303139
C 2.468347 -0.026117 -0.012179
O 3.296819 0.120089 -0.954731
O 2.165931 0.757982 0.957897
21
G: 25 x 25 i: 22 j: 17 E: 0.34872188483859645
C -1.973148 0.172059 0.016753
H -2.460507 0.44236 0.964774
H 0.119632 -0.049227 -1.154645
C -0.86902 -0.837531 0.400599
O -1.029221 -1.660248 1.324421
N 0.162043 -0.812203 -0.479084
C 1.510026 -1.285739 -0.094936
H 1.891459 -2.003322 -0.827246
H 1.403627 -1.738883 0.893257
C -2.98239 -0.461934 -0.949885
H -2.463511 -0.703559 -1.882773
H -3.381273 -1.380214 -0.508089
H -3.79553 0.239047 -1.16498
O -1.376664 1.393969 -0.510884
C -0.64809 2.138418 0.553436
H 0.212527 1.572758 0.953682
H -0.293175 3.051913 0.067059
H -1.34325 2.403826 1.366221
C 2.44872 0.006001 -0.059371
O 3.258436 0.12936 -1.021607
O 2.154838 0.819804 0.888913
21
G: 25 x 25 i: 21 j: 17 E: 0.3477842889569729
C -1.997405 0.08296 -0.039612
H -2.61669 0.33299 0.834433
H 0.098613 -0.226706 -1.1834
C -0.827358 -0.753807 0.518475
O -0.89837 -1.372763 1.597461
N 0.161076 -0.887984 -0.407812
C 1.531274 -1.265761 0.009807
H 1.92777 -2.045325 -0.646996
H 1.44728 -1.610342 1.042558
C -2.804804 -0.699856 -1.082853
H -2.141612 -0.966403 -1.91072
H -3.207793 -1.614085 -0.635883
H -3.621042 -0.077625 -1.464229
O -1.489824 1.34577 -0.56422
C -0.803766 2.135047 0.491642
H 0.120313 1.647578 0.851068
H -0.553626 3.087302 0.014139
H -1.491972 2.319643 1.332627
C 2.430454 0.047973 -0.098006
O 3.231103 0.094871 -1.074658
O 2.124697 0.943311 0.769463
21
G: 25 x 25 i: 20 j: 17 E: 0.4181035719884676
C -2.00936 -0.043896 -0.095624
H -2.722371 0.179082 0.713044
H 0.12609 -0.507098 -1.160385
C -0.785894 -0.639894 0.629087
O -0.799779 -0.955209 1.833472
N 0.192938 -0.983711 -0.259033
C 1.578199 -1.207049 0.223361
H 2.009838 -2.082658 -0.269317
H 1.500763 -1.343313 1.303638
C -2.624694 -0.99867 -1.123445
H -1.874241 -1.259336 -1.873921
H -2.969624 -1.913626 -0.63128
H -3.466264 -0.504426 -1.619895
O -1.644908 1.245076 -0.674258
C -0.989814 2.128631 0.319816
H 0.004758 1.756818 0.624778
H -0.880462 3.091582 -0.188917
H -1.635688 2.257095 1.204017
C 2.425654 0.095709 -0.136897
O 3.232862 -0.017127 -1.102903
O 2.085836 1.127619 0.5454
21
G: 25 x 25 i: 19 j: 17 E: 0.5423105633963132
C -2.009835 -0.211149 -0.127409
H -2.788404 -0.050695 0.634822
H 0.210684 -0.876082 -1.02163
C -0.757023 -0.514534 0.719067
O -0.768659 -0.44503 1.962911
N 0.261979 -1.047103 -0.016994
C 1.643492 -1.039188 0.527591
H 2.131614 -1.994732 0.317902
H 1.541024 -0.857559 1.598659
C -2.420376 -1.321123 -1.097042
H -1.626597 -1.49779 -1.826994
H -2.620938 -2.250279 -0.554469
H -3.319428 -1.007706 -1.63786
O -1.848937 1.081716 -0.787838
C -1.202026 2.082445 0.091643
H -0.139091 1.850612 0.280944
H -1.281867 3.028016 -0.454462
H -1.741502 2.167611 1.048721
C 2.439285 0.146173 -0.187178
O 3.279009 -0.205499 -1.064487
O 2.043531 1.314136 0.161075
21
G: 25 x 25 i: 18 j: 17 E: 0.6447743155295029
C -1.993034 -0.400917 -0.112232
H -2.81069 -0.352981 0.622434
H 0.334078 -1.255122 -0.71977
C -0.742251 -0.40163 0.790269
O -0.806417 0.055943 1.950521
N 0.346831 -1.032278 0.272657
C 1.698537 -0.742592 0.812682
H 2.255206 -1.673974 0.945865
H 1.536738 -0.222397 1.757646
C -2.168572 -1.602709 -1.041643
H -1.380096 -1.602964 -1.799825
H -2.141306 -2.542517 -0.48169
H -3.125778 -1.51064 -1.564904
O -2.075273 0.869901 -0.838301
C -1.401575 1.988586 -0.135846
H -0.304185 1.87247 -0.127239
H -1.680906 2.879996 -0.707225
H -1.762923 2.078818 0.898582
C 2.451577 0.189477 -0.246271
O 3.348291 -0.381205 -0.931974
O 1.981394 1.377106 -0.322025
21
G: 25 x 25 i: 17 j: 17 E: 0.7117367190348887
C -1.953568 -0.56565 -0.065578
H -2.771417 -0.696323 0.656839
H 0.453082 -1.418597 -0.420772
C -0.73114 -0.324966 0.842502
O -0.865132 0.346213 1.889033
N 0.416436 -0.959782 0.48474
C 1.727291 -0.457283 0.964447
H 2.337057 -1.286164 1.333243
H 1.501748 0.266372 1.748606
C -1.885355 -1.754012 -1.027071
H -1.12625 -1.557369 -1.791033
H -1.654241 -2.685046 -0.49898
H -2.846812 -1.850056 -1.541046
O -2.312436 0.680821 -0.762481
C -1.554209 1.88064 -0.334028
H -0.465793 1.776266 -0.481529
H -1.943903 2.682184 -0.970587
H -1.743163 2.110131 0.721768
C 2.450244 0.230029 -0.28707
O 3.400626 -0.432921 -0.794752
O 1.905075 1.321454 -0.670412
21
G: 25 x 25 i: 16 j: 17 E: 0.746351438727288
C -1.87932 -0.727167 0.087956
H -2.671784 -1.008834 0.791904
H 0.604153 -1.407802 0.126437
C -0.755957 -0.122477 0.961465
O -1.025573 0.801259 1.759089
N 0.476907 -0.679905 0.821427
C 1.700723 0.124324 1.065281
H 2.350012 -0.367919 1.793895
H 1.360679 1.098284 1.420957
C -1.493921 -1.909371 -0.807508
H -0.760075 -1.575022 -1.549278
H -1.086285 -2.74629 -0.227761
H -2.385259 -2.24457 -1.346136
O -2.540765 0.366215 -0.641847
C -1.694183 1.564555 -0.860227
H -0.649525 1.342093 -1.139077
H -2.189487 2.110415 -1.670563
H -1.671289 2.175645 0.048968
C 2.443924 0.212306 -0.348703
O 3.475857 -0.509128 -0.467219
O 1.819595 0.907944 -1.223638
21
G: 25 x 25 i: 15 j: 17 E: 0.6696851790657092
C -1.665251 0.321698 -0.845405
H -2.374286 0.033646 -1.630756
H 0.814082 0.06399 -1.461471
C -0.740375 -0.898276 -0.551291
O -1.196313 -1.900372 0.034932
N 0.569106 -0.770434 -0.938079
C 1.64308 -1.156613 0.021935
H 2.383565 -1.807299 -0.448933
H 1.14891 -1.652253 0.859512
C -0.911929 1.61584 -1.194472
H -0.177024 1.820423 -0.403457
H -0.406122 1.547119 -2.167398
H -1.639114 2.431955 -1.238821
O -2.592915 0.445781 0.284353
C -1.957205 0.240571 1.608551
H -0.911387 0.590939 1.644816
H -2.572526 0.808903 2.31563
H -1.975668 -0.825141 1.860317
C 2.318593 0.230299 0.422241
O 3.450194 0.46203 -0.084796
O 1.539577 1.025016 1.07398
21
G: 25 x 25 i: 14 j: 17 E: 0.635090269270222
C -1.585521 0.31566 -0.882219
H -2.17156 0.04068 -1.769036
H 0.87719 0.01799 -1.562208
C -0.644428 -0.87403 -0.527327
O -1.066852 -1.834976 0.143898
N 0.642277 -0.802961 -1.010442
C 1.735556 -1.158599 -0.054882
H 2.535977 -1.70166 -0.562279
H 1.270407 -1.757143 0.728969
C -0.837413 1.646389 -1.088796
H -0.150539 1.803093 -0.246024
H -0.274794 1.656233 -2.032261
H -1.580493 2.448784 -1.125017
O -2.657689 0.334456 0.109936
C -2.173891 0.220556 1.508747
H -1.122516 0.527844 1.624292
H -2.826697 0.866189 2.108733
H -2.260141 -0.820246 1.834337
C 2.272516 0.243458 0.472208
O 3.386725 0.618346 0.013118
O 1.413605 0.904469 1.171447
21
G: 25 x 25 i: 13 j: 17 E: 0.6292120905800402
C -1.512508 0.31824 -0.896858
H -1.96389 0.067537 -1.866775
H 0.92169 0.001458 -1.639998
C -0.551531 -0.835204 -0.494131
O -0.933166 -1.758189 0.247235
N 0.703596 -0.814306 -1.070765
C 1.823854 -1.148516 -0.133529
H 2.662385 -1.585375 -0.680269
H 1.405357 -1.836727 0.60034
C -0.801911 1.687765 -0.950894
H -0.165533 1.796898 -0.062778
H -0.18436 1.786442 -1.853514
H -1.571082 2.466061 -0.977864
O -2.696945 0.207844 -0.057391
C -2.381603 0.181114 1.393614
H -1.332066 0.429743 1.603831
H -3.046089 0.906157 1.881534
H -2.570975 -0.826046 1.774628
C 2.237987 0.246534 0.506062
O 3.317139 0.752389 0.089757
O 1.31718 0.772255 1.241729
21
G: 25 x 25 i: 12 j: 17 E: 0.6719606776860019
C -1.446464 0.324903 -0.889345
H -1.752886 0.102955 -1.921338
H 0.938671 -0.041856 -1.69238
C -0.480628 -0.797188 -0.431029
O -0.833893 -1.677676 0.370032
N 0.737349 -0.841339 -1.091229
C 1.89087 -1.143267 -0.177788
H 2.740169 -1.515779 -0.754731
H 1.520928 -1.875293 0.539212
C -0.789864 1.722237 -0.799913
H -0.200447 1.789516 0.123869
H -0.121496 1.897821 -1.652789
H -1.583981 2.47558 -0.828799
O -2.716979 0.09137 -0.223049
C -2.593342 0.157239 1.25475
H -1.562006 0.339343 1.581198
H -3.247093 0.961446 1.620181
H -2.9139 -0.803831 1.665782
C 2.234354 0.249024 0.509231
O 3.276943 0.832935 0.10082
O 1.29031 0.688595 1.272567
21
G: 25 x 25 i: 11 j: 17 E: 0.7097887095733313
C -1.442012 0.382792 -0.804439
H -1.512204 0.293503 -1.896133
H 0.871261 -0.002899 -1.627329
C -0.501928 -0.738877 -0.305089
O -0.827379 -1.590305 0.544662
N 0.694666 -0.769865 -0.979455
C 1.909356 -1.154537 -0.202909
H 2.644958 -1.620251 -0.863527
H 1.564537 -1.832763 0.577493
C -0.835318 1.759166 -0.400115
H -0.208835 1.660829 0.499812
H -0.187504 2.132369 -1.202889
H -1.649149 2.479184 -0.264098
O -2.826594 0.061807 -0.47907
C -3.106449 0.062104 0.964671
H -2.941275 1.050948 1.416688
H -4.168298 -0.195357 1.049599
H -2.485547 -0.677859 1.469242
C 2.466018 0.211824 0.408117
O 3.504722 0.682972 -0.138559
O 1.683175 0.716342 1.289956
21
G: 25 x 25 i: 10 j: 17 E: 0.6930737282273185
C -1.420523 0.506203 -0.623014
H -1.143614 0.667443 -1.671416
H 0.860402 -0.015766 -1.35393
C -0.595636 -0.687602 -0.094631
O -1.009503 -1.499758 0.762027
N 0.649657 -0.721766 -0.651539
C 1.841252 -1.123484 0.141457
H 2.368861 -1.952808 -0.336729
H 1.477043 -1.39941 1.133008
C -1.020882 1.736128 0.237253
H 0.064895 1.749552 0.429506
H -1.358797 2.663638 -0.237812
H -1.500052 1.651234 1.218499
O -2.827878 0.164323 -0.814939
C -3.564692 -0.142137 0.416612
H -3.792755 0.761325 1.003243
H -4.508431 -0.586461 0.079853
H -3.003798 -0.850043 1.027974
C 2.775655 0.176393 0.173124
O 3.798856 0.132963 -0.567868
O 2.275726 1.148803 0.841251
21
G: 25 x 25 i: 9 j: 17 E: 0.6779814168858138
C -1.381048 0.508995 -0.592255
H -1.037342 0.681231 -1.61844
H 0.816184 -0.208386 -1.4541
C -0.541222 -0.633985 0.006441
O -0.902911 -1.303899 1.000203
N 0.635706 -0.82257 -0.661883
C 1.870415 -1.165841 0.094109
H 2.431101 -1.951039 -0.418958
H 1.542772 -1.479992 1.086013
C -1.083466 1.749875 0.283261
H 0.001664 1.806013 0.47801
H -1.46195 2.662174 -0.190443
H -1.566287 1.622191 1.257832
O -2.74918 0.088979 -0.900554
C -3.56588 -0.220224 0.279777
H -3.901157 0.689528 0.802196
H -4.446035 -0.746226 -0.10785
H -3.009347 -0.854626 0.971674
C 2.721375 0.189762 0.137463
O 3.727112 0.228294 -0.627865
O 2.182405 1.107329 0.850025
21
G: 25 x 25 i: 8 j: 17 E: 0.7111685178624612
C -1.338729 0.516327 -0.576355
H -0.942964 0.687184 -1.583268
H 0.770599 -0.437234 -1.499493
C -0.47514 -0.557052 0.107163
O -0.785541 -1.060164 1.21101
N 0.617046 -0.938697 -0.625395
C 1.88822 -1.206007 0.105428
H 2.470824 -1.971722 -0.411811
H 1.601951 -1.510311 1.112309
C -1.174727 1.79092 0.275511
H -0.097312 1.934162 0.460301
H -1.630125 2.656752 -0.216887
H -1.642618 1.629234 1.251851
O -2.652878 -0.010992 -0.966926
C -3.516345 -0.342914 0.17273
H -3.955122 0.555981 0.634023
H -4.324777 -0.956662 -0.24131
H -2.956923 -0.896171 0.93015
C 2.655229 0.200453 0.098342
O 3.636179 0.28685 -0.694895
O 2.071751 1.092969 0.806434
21
G: 25 x 25 i: 7 j: 17 E: 0.7729258165709325
C -1.297751 0.534517 -0.555351
H -0.838465 0.712245 -1.533095
H 0.71714 -0.662152 -1.454311
C -0.422186 -0.465932 0.217505
O -0.702798 -0.808064 1.388568
N 0.58553 -1.042701 -0.516668
C 1.888019 -1.221517 0.193876
H 2.47294 -2.011796 -0.281526
H 1.642487 -1.447019 1.231488
C -1.297172 1.83439 0.263551
H -0.241589 2.089515 0.437882
H -1.836612 2.633198 -0.256013
H -1.749835 1.641168 1.240774
O -2.532187 -0.112674 -1.03403
C -3.437784 -0.494237 0.054712
H -3.979011 0.373594 0.463679
H -4.162286 -1.185866 -0.390555
H -2.888947 -0.977657 0.867201
C 2.602894 0.205765 0.042234
O 3.553902 0.258871 -0.789873
O 1.999752 1.133836 0.684332
21
G: 25 x 25 i: 6 j: 17 E: 0.8551060575937299
C -1.243301 0.560649 -0.521466
H -0.702648 0.764416 -1.450321
H 0.652692 -0.871921 -1.337421
C -0.379297 -0.376931 0.338595
O -0.648599 -0.579718 1.542961
N 0.547262 -1.13226 -0.354839
C 1.883621 -1.205807 0.321021
H 2.469694 -2.031453 -0.088157
H 1.684208 -1.318996 1.386461
C -1.435685 1.861365 0.262142
H -0.422882 2.239644 0.448983
H -2.043883 2.578577 -0.2986
H -1.893824 1.636798 1.229371
O -2.365773 -0.202717 -1.107061
C -3.318343 -0.656776 -0.09082
H -3.967103 0.160931 0.260763
H -3.937953 -1.418137 -0.57832
H -2.801548 -1.080609 0.77604
C 2.541291 0.213658 -0.02417
O 3.455692 0.202191 -0.89807
O 1.914016 1.191446 0.515077
21
G: 25 x 25 i: 5 j: 17 E: 0.9239485781272379
C -1.13885 0.595249 -0.441651
H -0.465929 0.879414 -1.252342
H 0.568968 -1.07932 -1.144146
C -0.348413 -0.325351 0.501482
O -0.630336 -0.426408 1.712233
N 0.516196 -1.22585 -0.132015
C 1.895045 -1.140774 0.464995
H 2.506762 -1.982845 0.133134
H 1.762652 -1.122292 1.5469
C -1.586806 1.838658 0.321625
H -0.661179 2.357496 0.588216
H -2.232133 2.467531 -0.300557
H -2.098108 1.545624 1.242438
O -2.091735 -0.241247 -1.210534
C -3.120687 -0.818484 -0.347509
H -3.885937 -0.079005 -0.063439
H -3.595472 -1.616724 -0.929401
H -2.691783 -1.230258 0.574015
C 2.430681 0.245778 -0.108902
O 3.290071 0.183692 -1.033296
O 1.73112 1.242822 0.305229
21
G: 25 x 25 i: 4 j: 17 E: 0.952610369418835
C -1.150029 0.508581 -0.521229
H -0.384307 0.723449 -1.268229
H 0.432019 -1.367838 -0.581516
C -0.378243 -0.025665 0.698613
O -0.596235 0.368028 1.857663
N 0.458812 -1.107432 0.408292
C 1.869572 -0.836601 0.84955
H 2.453615 -1.760113 0.851783
H 1.801002 -0.386773 1.840446
C -1.898356 1.786271 -0.154569
H -1.132196 2.543573 0.037488
H -2.546357 2.099913 -0.979377
H -2.475513 1.646627 0.763361
O -1.845146 -0.624665 -1.171817
C -2.825828 -1.239033 -0.286911
H -3.70135 -0.59335 -0.116014
H -3.154003 -2.158067 -0.785211
H -2.396075 -1.489067 0.693257
C 2.390089 0.190419 -0.252275
O 3.194373 -0.263673 -1.115097
O 1.728039 1.29404 -0.234888
21
G: 25 x 25 i: 3 j: 17 E: 0.848144702045829
C -1.267621 0.28306 -0.654059
H -0.488564 0.411146 -1.415832
H 0.346226 -1.29992 0.18413
C -0.473174 0.479024 0.646915
O -0.640849 1.463362 1.386441
N 0.408196 -0.562988 0.891322
C 1.821886 -0.135169 1.131073
H 2.371835 -0.908984 1.672314
H 1.770996 0.80263 1.685403
C -2.382059 1.317392 -0.797339
H -1.933479 2.313411 -0.820402
H -2.939697 1.136688 -1.721511
H -3.061498 1.282019 0.060163
O -1.602945 -1.146718 -0.82935
C -2.295764 -1.705012 0.326161
H -3.253836 -1.204067 0.53196
H -2.491598 -2.754426 0.080485
H -1.672625 -1.652143 1.229114
C 2.387376 0.063394 -0.352647
O 3.174095 -0.830826 -0.776016
O 1.788575 1.013988 -0.971788
21
G: 25 x 25 i: 2 j: 17 E: 0.7789821482783736
C -1.329755 0.198737 -0.642985
H -0.60798 0.333793 -1.462135
H 0.294554 -1.178493 0.455119
C -0.47258 0.670794 0.542405
O -0.592756 1.807456 1.030049
N 0.383207 -0.316557 1.000191
C 1.809844 0.120706 1.12551
H 2.355029 -0.542015 1.801887
H 1.788507 1.151956 1.479707
C -2.586686 1.045149 -0.824819
H -2.284049 2.09418 -0.855619
H -3.102594 0.77217 -1.750516
H -3.271526 0.925835 0.021893
O -1.420779 -1.274796 -0.651667
C -2.096526 -1.804612 0.531288
H -3.150472 -1.495567 0.591782
H -2.052289 -2.894596 0.437049
H -1.582421 -1.496536 1.451235
C 2.350135 0.005963 -0.377807
O 3.112564 -0.971516 -0.62487
O 1.761497 0.82945 -1.165174
21
G: 25 x 25 i: 1 j: 17 E: 0.8002661135997187
C -1.395249 0.164224 -0.614559
H -0.777534 0.325503 -1.511104
H 0.266245 -1.0707 0.598394
C -0.454003 0.782349 0.43523
O -0.53176 1.983898 0.744088
N 0.363844 -0.152697 1.042437
C 1.801144 0.270474 1.106919
H 2.337594 -0.320488 1.852874
H 1.802693 1.336651 1.3363
C -2.73698 0.887735 -0.688232
H -2.520783 1.958399 -0.711704
H -3.2976 0.590699 -1.579892
H -3.345543 0.693321 0.202189
O -1.309583 -1.307325 -0.58961
C -1.9466 -1.890451 0.593872
H -3.037542 -1.753458 0.594725
H -1.722884 -2.961135 0.554336
H -1.530494 -1.464411 1.516289
C 2.323916 -0.032131 -0.378001
O 3.066046 -1.047205 -0.511881
O 1.740993 0.700795 -1.252701
21
G: 25 x 25 i: 0 j: 17 E: 0.45792385906861455
C -1.850119 -0.179691 -0.441614
H -2.583743 0.012808 -1.23652
H 0.459767 -0.053777 -1.286807
C -0.92625 1.070705 -0.324079
O -1.309661 2.094525 0.284061
N 0.302794 0.849031 -0.835112
C 1.556878 1.370559 -0.242506
H 1.187907 2.024006 0.54819
H 2.241746 1.887492 -0.922495
C -2.609532 -0.352581 0.882662
H -3.057337 0.613079 1.129149
H -3.378786 -1.126301 0.792565
H -1.920206 -0.620798 1.688124
O -1.120712 -1.350233 -0.921763
C -0.229301 -1.960058 0.10454
H -0.733575 -2.81695 0.568122
H 0.688983 -2.250393 -0.4096
H 0.091845 -1.248664 0.874112
C 2.193113 0.022355 0.335614
O 1.87956 -0.263344 1.530161
O 2.560203 -0.75488 -0.615805
21
G: 25 x 25 i: 0 j: 18 E: 0.49571991756238276
C -1.838327 -0.038365 -0.538808
H -2.520254 0.27544 -1.341383
H 0.444477 0.050478 -1.379369
C -0.829157 1.111317 -0.23884
O -1.16899 2.103527 0.440821
N 0.369684 0.908595 -0.832114
C 1.658752 1.31292 -0.219486
H 1.433392 2.005944 0.591408
H 2.319247 1.748262 -0.974251
C -2.67411 -0.253042 0.73228
H -3.076282 0.719761 1.02546
H -3.482763 -0.968575 0.550248
H -2.042687 -0.616565 1.547525
O -1.211207 -1.301093 -0.927031
C -0.523475 -1.993932 0.203246
H -1.173305 -2.785022 0.597822
H 0.4105 -2.401435 -0.19346
H -0.214981 -1.311785 1.004484
C 2.201862 -0.094536 0.301367
O 1.864996 -0.401827 1.489363
O 2.682901 -0.818461 -0.633433
21
G: 25 x 25 i: 1 j: 18 E: 0.42902407690053224
C -1.820883 0.02171 -0.587886
H -2.3592 0.365472 -1.481843
H 0.447814 0.039372 -1.436297
C -0.743118 1.073163 -0.189499
O -1.000006 2.018099 0.584678
N 0.408882 0.900647 -0.886315
C 1.730234 1.258861 -0.307054
H 1.554051 1.998018 0.474252
H 2.393277 1.624481 -1.095422
C -2.817691 -0.095515 0.57162
H -3.155191 0.910969 0.830278
H -3.665071 -0.730486 0.29365
H -2.321372 -0.516884 1.45061
O -1.268799 -1.305866 -0.858626
C -0.644727 -1.940585 0.336589
H -1.350426 -2.646687 0.792456
H 0.261495 -2.44215 -0.013738
H -0.292832 -1.212461 1.07767
C 2.215847 -0.141484 0.277624
O 1.883581 -0.369005 1.484586
O 2.648637 -0.937113 -0.622609
21
G: 25 x 25 i: 2 j: 18 E: 0.4449076412329305
C -1.797282 0.071007 -0.629833
H -2.195759 0.425729 -1.589284
H 0.460525 0.070087 -1.495779
C -0.67253 1.021549 -0.135526
O -0.861486 1.885472 0.742358
N 0.437301 0.918328 -0.921164
C 1.783527 1.226896 -0.361341
H 1.649175 1.983261 0.411368
H 2.443532 1.554055 -1.168607
C -2.913981 0.058562 0.418489
H -3.232047 1.085832 0.612504
H -3.757044 -0.548524 0.073804
H -2.529898 -0.351487 1.357268
O -1.343462 -1.311587 -0.790228
C -0.745327 -1.890598 0.440986
H -1.484086 -2.517142 0.957837
H 0.1233 -2.470683 0.116884
H -0.336608 -1.134897 1.123088
C 2.226909 -0.176099 0.245645
O 1.903032 -0.364396 1.461674
O 2.615654 -1.008542 -0.641485
21
G: 25 x 25 i: 3 j: 18 E: 0.4650550681526511
C -1.794196 0.112818 -0.726358
H -1.910247 0.45221 -1.763094
H 0.57965 0.207047 -1.395727
C -0.709194 0.940587 -0.00386
O -0.960871 1.641649 0.997691
N 0.472359 0.926165 -0.676202
C 1.749904 1.220835 0.028048
H 1.488857 1.615031 1.00945
H 2.34236 1.926564 -0.561354
C -3.120765 0.276748 0.021126
H -3.472638 1.308239 -0.074324
H -3.863073 -0.411932 -0.39334
H -2.976762 0.080534 1.085983
O -1.508752 -1.32719 -0.737817
C -1.130661 -1.862214 0.590792
H -1.917114 -1.677243 1.337177
H -1.039792 -2.941504 0.433737
H -0.165319 -1.480193 0.95555
C 2.477256 -0.19422 0.115703
O 2.212755 -0.864411 1.170842
O 3.106054 -0.516201 -0.937385
21
G: 25 x 25 i: 4 j: 18 E: 0.5226366147780936
C -1.752354 0.159868 -0.767544
H -1.710976 0.496848 -1.809992
H 0.642452 0.435954 -1.402119
C -0.685936 0.87315 0.088906
O -0.94969 1.36531 1.205628
N 0.503073 0.996142 -0.558277
C 1.769327 1.186752 0.199241
H 1.492591 1.406034 1.229543
H 2.354615 1.989976 -0.25714
C -3.133899 0.44451 -0.174284
H -3.409224 1.492077 -0.337338
H -3.872158 -0.211412 -0.644046
H -3.104764 0.276245 0.904606
O -1.63434 -1.305271 -0.724836
C -1.243308 -1.822967 0.607306
H -1.881462 -1.413353 1.403652
H -1.406164 -2.90388 0.540139
H -0.18576 -1.632892 0.847177
C 2.521464 -0.211959 0.055262
O 2.26402 -1.058059 0.976054
O 3.158457 -0.33757 -1.034329
21
G: 25 x 25 i: 5 j: 18 E: 0.5690749856366892
C -1.708018 0.222516 -0.786052
H -1.534501 0.557934 -1.815321
H 0.707658 0.716838 -1.34707
C -0.659331 0.800332 0.183747
O -0.943895 1.054822 1.374585
N 0.536071 1.065534 -0.402238
C 1.78814 1.118696 0.398575
H 1.493319 1.135919 1.446644
H 2.373805 1.996191 0.111652
C -3.096717 0.648739 -0.307163
H -3.259062 1.718406 -0.484043
H -3.856108 0.064957 -0.834115
H -3.156581 0.471326 0.769512
O -1.796752 -1.248242 -0.732786
C -1.331914 -1.833387 0.547723
H -1.791026 -1.332683 1.410248
H -1.664229 -2.876421 0.506638
H -0.236374 -1.79931 0.656638
C 2.549891 -0.22603 -0.003788
O 2.289714 -1.237513 0.727777
O 3.19072 -0.131205 -1.094997
21
G: 25 x 25 i: 6 j: 18 E: 0.6179441233434773
C -1.67108 0.261562 -0.774527
H -1.378881 0.555385 -1.790663
H 0.749422 0.895365 -1.239734
C -0.639765 0.724833 0.269349
O -0.946167 0.821448 1.479012
N 0.556922 1.089104 -0.255564
C 1.802268 1.03666 0.555848
H 1.501065 0.888213 1.591648
H 2.380323 1.953024 0.411384
C -3.025322 0.866194 -0.399161
H -3.048619 1.943798 -0.601125
H -3.816301 0.363855 -0.962193
H -3.163434 0.707578 0.673811
O -1.999433 -1.175744 -0.685963
C -1.371336 -1.905014 0.439976
H -1.673324 -1.481505 1.404837
H -1.755089 -2.926396 0.341784
H -0.270524 -1.919298 0.398934
C 2.571605 -0.224238 -0.056103
O 2.319225 -1.341787 0.500869
O 3.19871 0.050617 -1.125421
21
G: 25 x 25 i: 7 j: 18 E: 0.6653524988578283
C -1.630467 0.270904 -0.748992
H -1.227987 0.462742 -1.753625
H 0.777335 1.008346 -1.119304
C -0.624725 0.662305 0.347943
O -0.957141 0.650768 1.553912
N 0.572027 1.095353 -0.122535
C 1.816249 0.947831 0.681143
H 1.513985 0.666393 1.688929
H 2.393536 1.875452 0.656391
C -2.918656 1.059947 -0.506702
H -2.789906 2.12043 -0.752481
H -3.727778 0.632626 -1.105509
H -3.147629 0.958375 0.557851
O -2.186259 -1.080026 -0.567672
C -1.400746 -1.982769 0.305278
H -1.527054 -1.69888 1.355338
H -1.825616 -2.976718 0.127485
H -0.318829 -1.999337 0.099431
C 2.577737 -0.223202 -0.099582
O 2.327324 -1.405304 0.301613
O 3.186002 0.193688 -1.134265
21
G: 25 x 25 i: 8 j: 18 E: 0.720698302713572
C -1.567088 0.296042 -0.717432
H -1.098988 0.396535 -1.707672
H 0.811253 1.147157 -1.009287
C -0.566277 0.601452 0.413401
O -0.893811 0.457455 1.61014
N 0.606657 1.148329 -0.007348
C 1.862514 0.883107 0.75628
H 1.567319 0.539952 1.746722
H 2.482565 1.782153 0.78352
C -2.753583 1.251666 -0.559183
H -2.470412 2.282257 -0.800013
H -3.575123 0.927123 -1.204696
H -3.061497 1.187448 0.488433
O -2.306392 -0.946982 -0.49695
C -1.528993 -2.014226 0.177305
H -1.589802 -1.882717 1.261867
H -2.003515 -2.955231 -0.122552
H -0.457672 -2.033797 -0.079328
C 2.534116 -0.262413 -0.135509
O 2.229593 -1.457244 0.181525
O 3.128753 0.201402 -1.159056
21
G: 25 x 25 i: 9 j: 18 E: 0.7818842165197566
C -1.482026 0.332544 -0.668385
H -0.951142 0.328568 -1.632481
H 0.844609 1.299961 -0.852273
C -0.492133 0.536437 0.497975
O -0.800505 0.236513 1.667564
N 0.653024 1.198636 0.148806
C 1.925151 0.785413 0.82914
H 1.650041 0.379023 1.800899
H 2.6048 1.637744 0.896154
C -2.519941 1.459673 -0.612446
H -2.058517 2.430543 -0.821256
H -3.319386 1.259775 -1.332871
H -2.936716 1.456626 0.399048
O -2.39517 -0.776216 -0.444779
C -1.720739 -2.000948 0.053768
H -1.780593 -2.023883 1.145251
H -2.262404 -2.848504 -0.382038
H -0.650736 -2.056476 -0.204453
C 2.45762 -0.323216 -0.189762
O 2.076938 -1.515667 0.045533
O 3.028898 0.181215 -1.208237
21
G: 25 x 25 i: 10 j: 18 E: 0.8285412309487583
C -1.357777 0.385173 -0.592786
H -0.7552 0.24009 -1.503414
H 0.886261 1.453466 -0.589481
C -0.413328 0.457909 0.626987
O -0.712632 -0.022542 1.73324
N 0.72086 1.207841 0.393193
C 2.000852 0.598789 0.911874
H 1.759291 0.092632 1.844593
H 2.757651 1.377728 1.026341
C -2.16269 1.688234 -0.676998
H -1.497149 2.546742 -0.812308
H -2.873589 1.630278 -1.507697
H -2.718781 1.798083 0.258812
O -2.454818 -0.541372 -0.412506
C -1.975773 -1.908151 -0.080995
H -2.07614 -2.069443 0.995028
H -2.606319 -2.609452 -0.640933
H -0.912755 -2.055182 -0.331824
C 2.335979 -0.405881 -0.278848
O 1.855389 -1.580419 -0.159192
O 2.865452 0.174799 -1.279901
21
G: 25 x 25 i: 11 j: 18 E: 0.8780709797301824
C -1.203836 0.452448 -0.50506
H -0.578266 0.175203 -1.368969
H 0.970489 1.540096 -0.217767
C -0.334262 0.323864 0.757912
O -0.66475 -0.339758 1.751412
N 0.814464 1.112948 0.704879
C 2.069073 0.300464 0.983382
H 1.849909 -0.351341 1.826688
H 2.905302 0.978722 1.165476
C -1.716377 1.893856 -0.638769
H -0.887824 2.60667 -0.68509
H -2.328901 1.981132 -1.541923
H -2.340437 2.116089 0.232033
O -2.478329 -0.227445 -0.400072
C -2.281129 -1.692366 -0.251432
H -2.446485 -1.974091 0.790769
H -3.006778 -2.186521 -0.909843
H -1.252795 -1.983678 -0.515447
C 2.191971 -0.479061 -0.397333
O 1.596702 -1.606287 -0.446102
O 2.679115 0.237472 -1.330523
21
G: 25 x 25 i: 12 j: 18 E: 0.9989441940942925
C -1.114779 0.558215 -0.342401
H -0.552101 0.309761 -1.25728
H 1.064429 1.434052 0.453695
C -0.307472 -0.028385 0.82209
O -0.692475 -1.004065 1.484276
N 0.862697 0.681402 1.124721
C 2.065059 -0.259326 1.017692
H 1.788079 -1.19234 1.502953
H 2.938449 0.220964 1.463895
C -1.317516 2.073171 -0.195063
H -0.367469 2.613189 -0.175231
H -1.915014 2.431419 -1.039077
H -1.868536 2.266378 0.730326
O -2.515038 0.163783 -0.319347
C -2.643397 -1.28186 -0.617658
H -2.859139 -1.831183 0.300577
H -3.457569 -1.400564 -1.344917
H -1.703032 -1.677966 -1.029032
C 2.153463 -0.365099 -0.564799
O 1.48152 -1.319024 -1.085159
O 2.711102 0.643828 -1.104534
21
G: 25 x 25 i: 13 j: 18 E: 0.9633994160758448
C -1.030796 0.532353 0.049245
H -0.624843 0.612725 -0.980593
H 1.047402 0.344512 1.418145
C -0.390165 -0.785635 0.524247
O -0.903163 -1.897071 0.295314
N 0.839831 -0.624182 1.161477
C 2.048889 -1.086815 0.376652
H 1.792298 -2.026146 -0.111724
H 2.904897 -1.174215 1.049643
C -0.569736 1.787661 0.806901
H 0.461084 2.023436 0.514622
H -1.223502 2.610127 0.501172
H -0.653297 1.660134 1.8925
O -2.486157 0.613664 0.173878
C -3.172513 -0.188915 -0.840042
H -2.911666 -1.243108 -0.735937
H -4.24485 -0.030843 -0.674005
H -2.91244 0.143318 -1.859459
C 2.166959 0.13024 -0.63882
O 1.52314 -0.014791 -1.728178
O 2.637464 1.187698 -0.09274
21
G: 25 x 25 i: 14 j: 18 E: 0.9536645661373768
C -1.055133 0.526487 -0.064159
H -0.764159 0.561465 -1.13054
H 0.957118 0.390747 1.440062
C -0.367328 -0.767324 0.42091
O -0.817906 -1.892944 0.134533
N 0.782758 -0.5858 1.188742
C 2.05426 -1.050926 0.503638
H 1.853519 -2.022243 0.054222
H 2.867146 -1.073277 1.232723
C -0.537746 1.81582 0.587976
H 0.500994 1.993991 0.281254
H -1.165952 2.639211 0.23402
H -0.624497 1.763962 1.680101
O -2.488113 0.621834 0.237926
C -3.295635 -0.224706 -0.643177
H -2.990745 -1.268921 -0.558797
H -4.335551 -0.089195 -0.323089
H -3.200318 0.086968 -1.697871
C 2.19602 0.112989 -0.569662
O 1.626622 -0.109912 -1.68395
O 2.611462 1.211504 -0.056813
21
G: 25 x 25 i: 15 j: 18 E: 0.9896089979374665
C -1.092995 0.524027 -0.189938
H -0.934128 0.511676 -1.280939
H 0.843472 0.426293 1.436793
C -0.360006 -0.746442 0.295613
O -0.744521 -1.879504 -0.054372
N 0.694333 -0.554792 1.185706
C 2.025141 -1.031594 0.629323
H 1.869302 -2.019844 0.200141
H 2.771183 -1.018361 1.426622
C -0.528509 1.838748 0.356774
H 0.522833 1.959887 0.062281
H -1.124258 2.659855 -0.054766
H -0.631996 1.862889 1.448812
O -2.484102 0.638293 0.282202
C -3.385569 -0.265265 -0.435813
H -3.036321 -1.297468 -0.36751
H -4.369248 -0.148899 0.033905
H -3.461964 0.007207 -1.503158
C 2.245843 0.095862 -0.4704
O 1.777249 -0.168944 -1.618741
O 2.609795 1.216193 0.038978
21
G: 25 x 25 i: 16 j: 18 E: 1.0224510584066593
C -1.225252 0.524394 -0.36303
H -1.264154 0.432478 -1.459338
H 0.6849 0.5646 1.283813
C -0.395821 -0.692165 0.113664
O -0.679767 -1.845877 -0.274918
N 0.554278 -0.426412 1.069229
C 1.935415 -0.978927 0.838473
H 1.830837 -1.99769 0.467673
H 2.50769 -0.911831 1.765838
C -0.624388 1.881285 0.010213
H 0.43199 1.948166 -0.285627
H -1.201919 2.672867 -0.477878
H -0.715737 2.0226 1.094162
O -2.539356 0.646214 0.302726
C -3.480892 -0.372534 -0.164954
H -3.048342 -1.373326 -0.08751
H -4.369975 -0.277514 0.468462
H -3.76752 -0.202664 -1.217846
C 2.422395 0.046912 -0.286169
O 2.187649 -0.297109 -1.478573
O 2.686916 1.203448 0.210073
21
G: 25 x 25 i: 17 j: 18 E: 0.9351542584772687
C -1.711354 0.506876 -0.60543
H -2.206302 0.275738 -1.559616
H 0.621637 0.826961 0.567451
C -0.593177 -0.541733 -0.417077
O -0.811509 -1.739693 -0.738145
N 0.475596 -0.141832 0.291173
C 1.677752 -0.966448 0.548808
H 1.596676 -1.857816 -0.074182
H 1.734828 -1.212847 1.613678
C -1.240468 1.958435 -0.576187
H -0.450814 2.127479 -1.313785
H -2.087735 2.620518 -0.778871
H -0.864276 2.19246 0.424687
O -2.611759 0.559278 0.566474
C -3.466914 -0.627449 0.649911
H -2.877224 -1.543803 0.554933
H -3.959788 -0.575884 1.626086
H -4.232408 -0.626021 -0.145291
C 2.895414 -0.001164 0.138053
O 3.283892 -0.066758 -1.062358
O 3.142965 0.84654 1.061308
21
G: 25 x 25 i: 18 j: 18 E: 0.9592133236601512
C -1.765299 0.488219 -0.616587
H -2.386136 0.215496 -1.480905
H 0.505876 0.716774 0.651927
C -0.613943 -0.539426 -0.56319
O -0.785276 -1.689703 -1.04206
N 0.417036 -0.205845 0.231193
C 1.639349 -1.018582 0.418949
H 1.614725 -1.813078 -0.327756
H 1.666245 -1.414948 1.439046
C -1.302014 1.94017 -0.708682
H -0.60475 2.073178 -1.540379
H -2.168146 2.597069 -0.836557
H -0.805841 2.220438 0.22533
O -2.478755 0.574266 0.674723
C -3.248134 -0.644002 0.93444
H -2.650263 -1.543065 0.747907
H -3.55281 -0.59616 1.984508
H -4.145885 -0.695375 0.295262
C 2.838775 0.029235 0.202368
O 3.27418 0.146287 -0.978107
O 3.029268 0.737512 1.24788
21
G: 25 x 25 i: 19 j: 18 E: 0.9537990448607161
C -1.882267 0.70379 -0.070638
H -2.659111 0.991019 -0.794248
H 0.3195 -0.225869 0.838199
C -0.713144 0.142537 -0.917759
O -0.826792 -0.000596 -2.154825
N 0.337969 -0.262287 -0.179258
C 1.617988 -0.771704 -0.714452
H 1.689716 -0.438519 -1.750887
H 1.651932 -1.863851 -0.6366
C -1.457136 1.904902 0.771644
H -1.074748 2.70198 0.127767
H -2.314756 2.269802 1.346496
H -0.669409 1.613635 1.47028
O -2.341528 -0.189437 1.005094
C -2.640747 -1.526076 0.509114
H -1.743584 -2.028602 0.125328
H -3.033396 -2.084284 1.364705
H -3.393901 -1.510341 -0.29508
C 2.732485 -0.118203 0.241561
O 3.195495 0.999957 -0.122468
O 2.837687 -0.75998 1.339952
21
G: 25 x 25 i: 20 j: 18 E: 0.8520778373185749
C -1.918644 0.486013 0.354457
H -2.797416 1.02888 -0.023889
H 0.213944 -0.807416 0.253183
C -0.752942 0.785709 -0.618075
O -0.840045 1.672415 -1.493245
N 0.289832 -0.046434 -0.42072
C 1.620777 0.069512 -1.049863
H 1.705423 1.085413 -1.439179
H 1.733637 -0.679135 -1.841392
C -1.553009 0.95581 1.763518
H -1.411009 2.040681 1.767336
H -2.351451 0.682364 2.461195
H -0.619178 0.483744 2.077782
O -2.134045 -0.941326 0.628708
C -2.37854 -1.698888 -0.592078
H -1.509293 -1.674477 -1.260831
H -2.567022 -2.729383 -0.276354
H -3.255221 -1.320838 -1.143072
C 2.653206 -0.236568 0.145404
O 3.044598 0.764178 0.811371
O 2.779951 -1.489558 0.346926
21
G: 25 x 25 i: 21 j: 18 E: 0.6596584324779542
C -1.692355 0.40179 0.48593
H -2.651058 0.933202 0.396654
H 0.099939 -0.933673 -0.444098
C -0.722059 0.913232 -0.598593
O -0.799121 2.073429 -1.045603
N 0.198918 -0.036046 -0.924867
C 1.627963 0.323225 -1.147755
H 1.689178 1.41138 -1.175954
H 2.002124 -0.139599 -2.065013
C -1.005427 0.708118 1.833108
H -1.211177 1.747653 2.108823
H -1.414268 0.037899 2.596298
H 0.086209 0.592191 1.759308
O -1.799008 -1.061044 0.567048
C -2.410998 -1.618648 -0.635411
H -1.798071 -1.416442 -1.522855
H -2.475871 -2.698393 -0.471887
H -3.422496 -1.213674 -0.80408
C 2.327325 -0.310894 0.143656
O 2.412405 0.470811 1.147687
O 2.555271 -1.554341 0.032275
21
G: 25 x 25 i: 22 j: 18 E: 0.6364182126380911
C -1.710439 0.411662 0.34667
H -2.692274 0.855245 0.12992
H 0.083839 -0.95708 -0.524493
C -0.651206 0.916221 -0.653238
O -0.649674 2.101583 -1.035252
N 0.218226 -0.069122 -1.018059
C 1.672588 0.257075 -1.144013
H 1.756107 1.34103 -1.220999
H 2.101617 -0.26165 -2.004955
C -1.161777 0.886254 1.71026
H -1.344441 1.961095 1.805074
H -1.670754 0.344293 2.513677
H -0.073987 0.723599 1.75568
O -1.704449 -1.037243 0.577908
C -2.293499 -1.758514 -0.55119
H -1.723998 -1.583747 -1.472904
H -2.253243 -2.819662 -0.289522
H -3.341643 -1.461666 -0.718338
C 2.250746 -0.321193 0.229926
O 2.270814 0.508234 1.198494
O 2.457399 -1.573403 0.199198
21
G: 25 x 25 i: 23 j: 18 E: 0.7094444581925927
C -1.708677 0.417526 0.200393
H -2.680155 0.786186 -0.156366
H 0.102579 -0.973238 -0.63926
C -0.54722 0.924591 -0.678317
O -0.462799 2.133173 -0.965228
N 0.271292 -0.079172 -1.115243
C 1.746342 0.20906 -1.118532
H 1.865911 1.287438 -1.216641
H 2.229582 -0.350284 -1.922779
C -1.341276 1.007823 1.581083
H -1.48532 2.091133 1.542525
H -1.970769 0.560133 2.356255
H -0.275553 0.81271 1.774576
O -1.649035 -1.005197 0.554631
C -2.207982 -1.844776 -0.508718
H -1.655157 -1.718177 -1.448907
H -2.11178 -2.877729 -0.162944
H -3.270762 -1.614496 -0.687056
C 2.168316 -0.342387 0.321402
O 2.119146 0.514227 1.264082
O 2.329609 -1.602264 0.344443
21
G: 25 x 25 i: 24 j: 18 E: 0.8617381280273548
C -1.611364 0.4645 0.153257
H -2.570215 0.770756 -0.286645
H 0.128311 -1.076321 -0.612891
C -0.424811 0.838338 -0.76003
O -0.227857 2.030883 -1.056169
N 0.324746 -0.234545 -1.169534
C 1.816693 -0.002072 -1.122979
H 1.877228 1.06079 -1.351755
H 2.40896 -0.626182 -1.795694
C -1.299496 1.221377 1.464078
H -1.347756 2.294757 1.266406
H -2.006223 0.931309 2.247051
H -0.267241 0.968859 1.746899
O -1.614687 -0.949969 0.548247
C -2.319288 -1.784537 -0.427664
H -1.855027 -1.72549 -1.421436
H -2.251241 -2.809703 -0.054751
H -3.378967 -1.49586 -0.515356
C 2.102535 -0.324899 0.416204
O 1.737241 0.595623 1.220524
O 2.28072 -1.567455 0.615863
21
G: 25 x 25 i: 24 j: 19 E: 0.8072187342877442
C -1.59199 0.535324 0.242485
H -2.566029 0.837336 -0.165623
H -0.010014 -1.21118 -0.270599
C -0.506496 0.62026 -0.852705
O -0.272693 1.706065 -1.411675
N 0.194458 -0.548371 -1.025483
C 1.679884 -0.362303 -1.16737
H 1.829873 0.574694 -1.703567
H 2.110957 -1.223097 -1.683221
C -1.101891 1.471138 1.367326
H -1.085556 2.494765 0.985078
H -1.751734 1.387507 2.24377
H -0.068575 1.17469 1.597042
O -1.743832 -0.849048 0.723158
C -2.666882 -1.614278 -0.120092
H -2.314039 -1.671077 -1.159398
H -2.706638 -2.620583 0.306702
H -3.677133 -1.174499 -0.114376
C 2.186601 -0.272663 0.348965
O 1.927501 0.850453 0.902306
O 2.699314 -1.331822 0.815075
21
G: 25 x 25 i: 23 j: 19 E: 0.6581954661578493
C -1.580201 0.585904 0.304672
H -2.540384 0.992148 -0.041061
H -0.013522 -1.194525 -0.023105
C -0.599625 0.503643 -0.883214
O -0.424939 1.482709 -1.630455
N 0.155411 -0.637985 -0.865767
C 1.615746 -0.475825 -1.152427
H 1.713397 0.40424 -1.788639
H 2.006506 -1.3818 -1.62155
C -0.89217 1.501546 1.340002
H -0.88151 2.521918 0.946285
H -1.43174 1.4596 2.291374
H 0.152174 1.170674 1.448776
O -1.864268 -0.751843 0.846579
C -2.799573 -1.485853 -0.011235
H -2.389232 -1.62469 -1.020185
H -2.948377 -2.460508 0.462376
H -3.767253 -0.965039 -0.089109
C 2.271112 -0.245144 0.289132
O 2.066453 0.928382 0.755893
O 2.837795 -1.254467 0.799686
21
G: 25 x 25 i: 22 j: 19 E: 0.585772769378309
C -1.573656 0.669566 0.255474
H -2.504474 1.108127 -0.129828
H 0.024167 -1.096263 0.342127
C -0.693188 0.260731 -0.9422
O -0.606545 0.969212 -1.961823
N 0.15057 -0.762094 -0.615606
C 1.5776 -0.676327 -1.039151
H 1.619697 0.05938 -1.843414
H 1.939765 -1.658241 -1.35405
C -0.747653 1.679433 1.079992
H -0.74814 2.641631 0.558261
H -1.196105 1.78888 2.072779
H 0.296829 1.333716 1.145094
O -1.975344 -0.513891 1.030258
C -2.895849 -1.359756 0.2684
H -2.422449 -1.733225 -0.648555
H -3.149918 -2.200415 0.920619
H -3.815116 -0.815359 -0.001284
C 2.359372 -0.179804 0.266058
O 2.196822 1.065293 0.514082
O 2.977817 -1.077694 0.90699
21
G: 25 x 25 i: 21 j: 19 E: 0.6073034060136706
C -1.559572 0.7154 -0.269699
H -2.440326 0.819411 -0.919647
H 0.093335 -0.405282 1.038616
C -0.761127 -0.501411 -0.780247
O -0.768527 -0.856209 -1.973684
N 0.172176 -0.881278 0.139155
C 1.564034 -1.194167 -0.278813
H 1.55978 -1.238477 -1.369098
H 1.9004 -2.133329 0.168799
C -0.645265 1.956192 -0.325235
H -0.651729 2.358433 -1.343823
H -1.033323 2.709429 0.368602
H 0.395177 1.687195 -0.080043
O -2.103819 0.433045 1.068038
C -2.985452 -0.730798 1.050115
H -2.439529 -1.637591 0.760532
H -3.367026 -0.841091 2.069675
H -3.831617 -0.59065 0.357629
C 2.44207 0.027884 0.267943
O 2.312848 1.098132 -0.422265
O 3.094684 -0.19968 1.326697
21
G: 25 x 25 i: 20 j: 19 E: 0.7140813618152606
C -1.443704 0.70278 -0.430118
H -2.083181 0.687763 -1.323657
H 0.115306 -0.028054 1.289766
C -0.680474 -0.634753 -0.472679
O -0.659446 -1.36281 -1.481739
N 0.175794 -0.764729 0.587011
C 1.552495 -1.27102 0.333452
H 1.498077 -1.85351 -0.586155
H 1.900669 -1.862758 1.184244
C -0.439994 1.877714 -0.432027
H -0.772041 2.685983 -1.091779
H -0.396713 2.26201 0.593158
H 0.572228 1.53075 -0.702417
O -2.377679 0.719047 0.711525
C -3.21707 -0.471119 0.736924
H -2.616382 -1.381017 0.866396
H -3.89033 -0.352337 1.592239
H -3.816477 -0.576779 -0.182489
C 2.443597 0.041136 0.142435
O 2.270736 0.601391 -0.997216
O 3.137538 0.388951 1.140391
21
G: 25 x 25 i: 19 j: 19 E: 0.8027859433514095
C -1.410506 0.696085 -0.394857
H -1.906968 0.629868 -1.373553
H 0.29152 0.116434 1.323159
C -0.670363 -0.657609 -0.294634
O -0.745513 -1.513979 -1.196615
N 0.265823 -0.691602 0.70272
C 1.614291 -1.245712 0.391782
H 1.485432 -1.896283 -0.472854
H 2.016921 -1.775907 1.258788
C -0.42303 1.86992 -0.323723
H -0.798451 2.734517 -0.881048
H -0.323976 2.16173 0.728295
H 0.571194 1.556126 -0.68318
O -2.518055 0.771541 0.575325
C -3.340491 -0.427607 0.538773
H -2.769322 -1.322777 0.822033
H -4.147935 -0.267258 1.261059
H -3.775863 -0.604975 -0.458773
C 2.496807 0.040468 0.042149
O 2.246333 0.518986 -1.119458
O 3.254289 0.455509 0.965759
21
G: 25 x 25 i: 18 j: 19 E: 0.8678476580134884
C -1.377813 0.683214 -0.28282
H -1.763133 0.58979 -1.308582
H 0.529773 0.235361 1.322179
C -0.642596 -0.662744 -0.083099
O -0.875982 -1.633648 -0.834417
N 0.401041 -0.630261 0.800653
C 1.702163 -1.230256 0.377142
H 1.477876 -1.909726 -0.444873
H 2.182433 -1.73626 1.218366
C -0.448368 1.889283 -0.145545
H -0.873838 2.764244 -0.647896
H -0.338393 2.134858 0.917569
H 0.541621 1.632402 -0.556309
O -2.593026 0.724757 0.55533
C -3.501193 -0.357551 0.191944
H -2.99262 -1.330072 0.166664
H -4.291255 -0.366947 0.950072
H -3.952066 -0.194411 -0.802033
C 2.554423 0.038428 -0.095243
O 2.193094 0.488189 -1.238261
O 3.394993 0.474496 0.743097
21
G: 25 x 25 i: 17 j: 19 E: 0.9170339445481659
C -1.361064 0.685922 -0.191842
H -1.624598 0.597316 -1.25705
H 0.680896 0.282594 1.292833
C -0.642921 -0.661925 0.062596
O -0.972079 -1.680724 -0.586877
N 0.488293 -0.60165 0.826285
C 1.741554 -1.229689 0.306379
H 1.44882 -1.884666 -0.514411
H 2.263993 -1.767104 1.10144
C -0.48251 1.912504 0.034033
H -0.937594 2.793598 -0.429894
H -0.390755 2.111797 1.108668
H 0.512571 1.710855 -0.393538
O -2.672372 0.702305 0.487087
C -3.539868 -0.352401 -0.032838
H -3.03772 -1.326216 -0.039233
H -4.417741 -0.377655 0.621493
H -3.862498 -0.137486 -1.066491
C 2.591132 0.037509 -0.184501
O 2.17007 0.529911 -1.287574
O 3.487962 0.430632 0.616017
21
G: 25 x 25 i: 16 j: 19 E: 0.984169412537085
C -1.346266 0.67985 -0.097435
H -1.478902 0.603305 -1.189603
H 0.79466 0.303643 1.268055
C -0.647149 -0.670823 0.205667
O -1.041693 -1.721618 -0.352068
N 0.558878 -0.588696 0.840189
C 1.762293 -1.227041 0.223474
H 1.408485 -1.843198 -0.603842
H 2.320025 -1.807249 0.962367
C -0.521582 1.92365 0.215327
H -1.006739 2.804188 -0.217818
H -0.452093 2.078939 1.298897
H 0.480452 1.780659 -0.218253
O -2.731075 0.680033 0.408227
C -3.542043 -0.340183 -0.255198
H -3.065849 -1.323871 -0.211769
H -4.505059 -0.348322 0.266803
H -3.708111 -0.093259 -1.318807
C 2.610875 0.045755 -0.263789
O 2.138827 0.594257 -1.317739
O 3.559467 0.384677 0.500877
21
G: 25 x 25 i: 15 j: 19 E: 1.0680469916351285
C -1.318734 0.66829 0.008518
H -1.298212 0.614859 -1.095071
H 0.88888 0.301654 1.269403
C -0.64475 -0.685249 0.358816
O -1.089309 -1.757873 -0.112555
N 0.618898 -0.594255 0.871529
C 1.765894 -1.224214 0.145532
H 1.347905 -1.804092 -0.678487
H 2.369059 -1.83899 0.81772
C -0.560508 1.925634 0.42371
H -1.080309 2.801963 0.024003
H -0.517784 2.025453 1.51501
H 0.449032 1.853086 -0.007582
O -2.756301 0.650971 0.315986
C -3.479615 -0.318281 -0.508192
H -3.035152 -1.312829 -0.429942
H -4.511973 -0.314665 -0.141252
H -3.474074 -0.022593 -1.572795
C 2.591587 0.062157 -0.35023
O 2.050233 0.65622 -1.344085
O 3.596263 0.361422 0.356825
21
G: 25 x 25 i: 14 j: 19 E: 1.0269822457521514
C -1.105414 0.684387 0.053636
H -0.686124 0.568876 -0.961254
H 1.054353 0.788033 1.366101
C -0.412011 -0.493512 0.761705
O -0.803642 -1.669628 0.627837
N 0.824866 -0.205578 1.328126
C 1.970174 -0.931389 0.663198
H 1.632548 -1.948983 0.471935
H 2.855915 -0.887277 1.301006
C -0.78878 2.094415 0.568661
H -1.424296 2.79704 0.02167
H -1.019185 2.178766 1.636622
H 0.259371 2.347461 0.380686
O -2.552973 0.461019 -0.036812
C -2.887909 -0.641445 -0.942846
H -2.407529 -1.563454 -0.612989
H -3.980422 -0.730895 -0.917506
H -2.56814 -0.422655 -1.976274
C 2.132807 -0.072605 -0.672185
O 1.220079 -0.315113 -1.535182
O 3.018566 0.83285 -0.630831
21
G: 25 x 25 i: 13 j: 19 E: 0.9760809337294631
C -1.170398 0.678022 -0.168126
H -0.593779 0.339665 -1.050197
H 1.028096 1.360923 0.819395
C -0.420161 -0.072904 0.943425
O -0.758406 -1.202342 1.346588
N 0.825175 0.458913 1.251504
C 1.968362 -0.485091 0.966455
H 1.625632 -1.483501 1.23287
H 2.854366 -0.174841 1.525523
C -1.18443 2.211484 -0.072892
H -1.835653 2.586609 -0.867588
H -1.592708 2.525788 0.892862
H -0.186484 2.636473 -0.212211
O -2.532918 0.164873 -0.31315
C -2.561618 -1.21173 -0.818548
H -2.046466 -1.878479 -0.12659
H -3.62225 -1.475579 -0.906456
H -2.087129 -1.284481 -1.811237
C 2.145122 -0.29292 -0.607894
O 1.233319 -0.884734 -1.284118
O 3.060366 0.506437 -0.963246
21
G: 25 x 25 i: 12 j: 19 E: 0.9354834347413998
C -1.218478 0.544757 -0.427355
H -0.514953 0.045617 -1.119264
H 0.960879 1.621608 0.026298
C -0.446418 0.427318 0.896266
O -0.747446 -0.364731 1.807362
N 0.792036 1.061292 0.864718
C 1.950884 0.107029 1.040004
H 1.628986 -0.648386 1.754887
H 2.83765 0.654354 1.36872
C -1.56771 1.975941 -0.859294
H -2.086615 1.931046 -1.8216
H -2.242836 2.416274 -0.119107
H -0.680737 2.606151 -0.965865
O -2.418093 -0.284521 -0.403202
C -2.096634 -1.713913 -0.293746
H -1.672043 -1.931381 0.686752
H -3.04371 -2.245731 -0.443118
H -1.373295 -2.020009 -1.065397
C 2.1066 -0.466385 -0.439058
O 1.197993 -1.31885 -0.73792
O 3.001665 0.079719 -1.14827
21
G: 25 x 25 i: 11 j: 19 E: 0.8226066430306673
C -1.322074 0.346537 -0.558834
H -0.545728 -0.002082 -1.257237
H 0.747691 1.671697 -0.515684
C -0.529065 0.671928 0.717493
O -0.760777 0.158474 1.822411
N 0.638675 1.396044 0.465372
C 1.873154 0.628415 0.887479
H 1.62156 0.129989 1.822274
H 2.720834 1.31047 0.984583
C -2.114254 1.542795 -1.101003
H -2.611094 1.257324 -2.033771
H -2.878426 1.810307 -0.364892
H -1.466197 2.405933 -1.282349
O -2.171128 -0.804907 -0.320388
C -1.370061 -1.970448 0.131106
H -1.503342 -2.105654 1.20701
H -1.733819 -2.847721 -0.419384
H -0.300191 -1.80454 -0.060668
C 2.06736 -0.388792 -0.317697
O 1.236014 -1.367677 -0.303563
O 2.926845 -0.05847 -1.184554
21
G: 25 x 25 i: 10 j: 19 E: 0.8065119998955197
C -1.547963 0.193676 -0.596418
H -0.907855 0.055413 -1.48229
H 0.539901 1.47634 -0.944171
C -0.626209 0.701642 0.533258
O -0.777469 0.365512 1.719625
N 0.463092 1.412109 0.073316
C 1.780699 1.014124 0.672915
H 1.575331 0.733277 1.705058
H 2.493342 1.837795 0.590512
C -2.686574 1.182128 -0.879047
H -3.334286 0.784737 -1.667261
H -3.270358 1.287568 0.040179
H -2.290118 2.158422 -1.176356
O -2.038666 -1.123041 -0.253661
C -0.944558 -2.025376 0.192918
H -0.99334 -2.12769 1.280079
H -1.108723 -2.993968 -0.295574
H 0.052304 -1.625471 -0.05348
C 2.22597 -0.236156 -0.213533
O 1.589929 -1.313207 0.055757
O 3.075451 0.014308 -1.118029
21
G: 25 x 25 i: 9 j: 19 E: 0.766514212873517
C -1.682914 0.11392 -0.636237
H -1.183823 0.079675 -1.617514
H 0.497451 1.222181 -1.181915
C -0.706353 0.730195 0.386989
O -0.876188 0.576863 1.611303
N 0.396337 1.318238 -0.171221
C 1.701023 1.143637 0.534936
H 1.460276 0.985815 1.585757
H 2.336896 2.017029 0.373221
C -2.983953 0.923682 -0.695523
H -3.710427 0.407048 -1.330554
H -3.369815 0.974954 0.326774
H -2.802828 1.934769 -1.075325
O -1.938499 -1.266495 -0.264773
C -0.736003 -1.969482 0.252326
H -0.773172 -1.977298 1.34551
H -0.778498 -2.991808 -0.14201
H 0.214331 -1.485662 -0.028713
C 2.339074 -0.161084 -0.135812
O 1.805423 -1.256452 0.250458
O 3.228014 0.061137 -1.009082
21
G: 25 x 25 i: 8 j: 19 E: 0.7101164708437864
C -1.767739 0.058932 -0.665134
H -1.365843 0.084284 -1.689671
H 0.481324 0.988309 -1.302998
C -0.782436 0.767856 0.283175
O -0.984763 0.785441 1.514826
N 0.360234 1.206581 -0.315214
C 1.640295 1.176666 0.444308
H 1.368066 1.084655 1.495662
H 2.22366 2.077669 0.240185
C -3.150592 0.713291 -0.583575
H -3.880945 0.094628 -1.113358
H -3.40671 0.756437 0.478856
H -3.139241 1.725183 -1.003608
O -1.833871 -1.354354 -0.300421
C -0.607367 -1.879215 0.350403
H -0.682232 -1.738277 1.433337
H -0.575643 -2.946718 0.104618
H 0.32634 -1.386397 0.030679
C 2.411504 -0.121281 -0.091659
O 1.949178 -1.22449 0.357636
O 3.327907 0.107987 -0.93358
21
G: 25 x 25 i: 7 j: 19 E: 0.6560697662771418
C -1.829895 0.018619 -0.681076
H -1.520807 0.094991 -1.733989
H 0.464254 0.77772 -1.3754
C -0.84103 0.807653 0.195053
O -1.057646 0.979401 1.414181
N 0.334541 1.103431 -0.41971
C 1.596957 1.187986 0.358808
H 1.308851 1.162271 1.4099
H 2.141948 2.099641 0.101159
C -3.2569 0.531328 -0.47508
H -3.96522 -0.166914 -0.929529
H -3.416516 0.57486 0.605872
H -3.388625 1.531597 -0.903789
O -1.714285 -1.411686 -0.36212
C -0.534722 -1.788156 0.454529
H -0.703232 -1.521432 1.503594
H -0.459283 -2.875887 0.347994
H 0.411464 -1.313662 0.143695
C 2.454481 -0.09973 -0.059087
O 2.043891 -1.191948 0.461958
O 3.384546 0.120058 -0.887821
21
G: 25 x 25 i: 6 j: 19 E: 0.6080288890589145
C -1.867685 0.017999 -0.688792
H -1.70184 0.18328 -1.76161
H 0.443792 0.639337 -1.457185
C -0.847434 0.846168 0.112832
O -1.038354 1.12038 1.318081
N 0.327179 1.057929 -0.536386
C 1.592714 1.228987 0.220218
H 1.306728 1.35115 1.264908
H 2.144369 2.092042 -0.161433
C -3.295942 0.386722 -0.281709
H -3.991941 -0.348881 -0.693331
H -3.333598 0.375155 0.810896
H -3.56228 1.391191 -0.631941
O -1.557854 -1.416442 -0.538444
C -0.566736 -1.742692 0.515477
H -0.932093 -1.447514 1.506332
H -0.470601 -2.832637 0.461046
H 0.41809 -1.272161 0.353561
C 2.448779 -0.106122 -0.004127
O 2.032598 -1.111184 0.666737
O 3.389479 -0.008108 -0.843866
21
G: 25 x 25 i: 5 j: 19 E: 0.555292141123573
C -1.898155 -0.004742 -0.675639
H -1.877554 0.200948 -1.752859
H 0.413498 0.438943 -1.502343
C -0.859097 0.892703 0.025746
O -1.031305 1.31105 1.190526
N 0.313666 0.994826 -0.654329
C 1.586155 1.254002 0.064734
H 1.306402 1.543567 1.077768
H 2.150194 2.037828 -0.447872
C -3.29429 0.222795 -0.092785
H -3.970921 -0.552122 -0.462711
H -3.22187 0.178846 0.996704
H -3.675308 1.213284 -0.367454
O -1.408676 -1.393716 -0.657005
C -0.570958 -1.715024 0.52516
H -1.074852 -1.439353 1.461395
H -0.445963 -2.802453 0.481166
H 0.416232 -1.223387 0.488236
C 2.42631 -0.10779 0.061277
O 1.996853 -0.985946 0.886001
O 3.373715 -0.157831 -0.774857
21
G: 25 x 25 i: 4 j: 19 E: 0.49618079698848305
C -1.928386 -0.048161 -0.626548
H -2.065149 0.16407 -1.693736
H 0.367755 0.148255 -1.471025
C -0.872779 0.930264 -0.069218
O -1.04079 1.561491 0.993633
N 0.292021 0.889005 -0.773388
C 1.576073 1.26072 -0.126288
H 1.311332 1.75058 0.811227
H 2.147321 1.918156 -0.78752
C -3.250347 0.078728 0.134533
H -3.923617 -0.726604 -0.172414
H -3.055665 0.024595 1.20801
H -3.714182 1.049962 -0.068049
O -1.315598 -1.379948 -0.725766
C -0.516153 -1.743892 0.469288
H -1.101869 -1.635114 1.393952
H -0.274754 -2.802293 0.323985
H 0.419243 -1.163652 0.548577
C 2.393186 -0.085957 0.138832
O 1.951139 -0.76997 1.127195
O 3.334734 -0.324223 -0.670422
21
G: 25 x 25 i: 3 j: 19 E: 0.4225292607479787
C -1.950094 -0.084021 -0.558592
H -2.2561 0.123767 -1.591638
H 0.329452 -0.076259 -1.400926
C -0.883337 0.961924 -0.165686
O -1.057843 1.778226 0.761108
N 0.2768 0.786209 -0.85668
C 1.566904 1.241544 -0.278677
H 1.31195 1.889825 0.560479
H 2.151012 1.765369 -1.040636
C -3.153685 -0.020147 0.386596
H -3.850858 -0.829196 0.148639
H -2.820052 -0.103129 1.423449
H -3.652853 0.947642 0.282215
O -1.274237 -1.365824 -0.790097
C -0.455538 -1.810893 0.364408
H -1.068572 -1.918636 1.271314
H -0.086307 -2.798652 0.070257
H 0.406797 -1.151149 0.561691
C 2.351589 -0.057098 0.215333
O 1.88819 -0.547671 1.305357
O 3.286752 -0.457344 -0.534915
21
G: 25 x 25 i: 2 j: 19 E: 0.37800145647270256
C -1.964397 -0.107838 -0.486475
H -2.436806 0.0984 -1.45636
H 0.306494 -0.202581 -1.33145
C -0.901181 0.992125 -0.251722
O -1.093539 1.938449 0.539361
N 0.268154 0.714911 -0.885805
C 1.55388 1.22133 -0.344551
H 1.29604 1.949309 0.42581
H 2.149796 1.666519 -1.146568
C -3.016189 -0.086623 0.628059
H -3.769269 -0.860891 0.45062
H -2.544064 -0.245579 1.600854
H -3.483566 0.900824 0.652424
O -1.277412 -1.34872 -0.857275
C -0.418826 -1.889051 0.228263
H -1.02087 -2.178507 1.101383
H 0.029813 -2.788496 -0.204468
H 0.388848 -1.199404 0.52734
C 2.319086 -0.034009 0.276042
O 1.83811 -0.413874 1.402691
O 3.254373 -0.515802 -0.424358
21
G: 25 x 25 i: 1 j: 19 E: 0.38592824515762914
C -1.971108 -0.118682 -0.410641
H -2.604345 0.093148 -1.283483
H 0.294913 -0.25951 -1.273077
C -0.92473 1.023779 -0.324161
O -1.140218 2.056753 0.345423
N 0.262433 0.680557 -0.879473
C 1.537618 1.216414 -0.345832
H 1.269381 1.968989 0.397249
H 2.142448 1.638343 -1.15386
C -2.833206 -0.133138 0.858423
H -3.631812 -0.877345 0.774634
H -2.219753 -0.351164 1.736969
H -3.250491 0.867511 0.991275
O -1.317372 -1.324897 -0.924085
C -0.420793 -1.973647 0.070793
H -1.002459 -2.407492 0.895993
H 0.061784 -2.782011 -0.486591
H 0.359744 -1.29785 0.459438
C 2.295741 -0.022238 0.318767
O 1.802982 -0.369585 1.450823
O 3.234911 -0.526202 -0.360453
21
G: 25 x 25 i: 0 j: 19 E: 0.4498971773427911
C -1.928431 -0.013337 -0.460707
H -2.634625 0.306339 -1.239193
H 0.364209 -0.100679 -1.294517
C -0.869537 1.107658 -0.276446
O -1.139224 2.134621 0.383866
N 0.336006 0.786766 -0.79672
C 1.60025 1.244781 -0.175235
H 1.218474 1.845016 0.652221
H 2.280764 1.815659 -0.813725
C -2.698876 -0.16356 0.85991
H -3.518059 -0.882284 0.755459
H -2.028148 -0.486277 1.661073
H -3.082543 0.824552 1.123593
O -1.343857 -1.239133 -1.006942
C -0.615297 -2.044344 0.011843
H -1.321546 -2.522424 0.703513
H -0.104739 -2.818511 -0.567753
H 0.137442 -1.4625 0.56978
C 2.313808 -0.085493 0.349123
O 1.60949 -0.717977 1.217384
O 3.314244 -0.465071 -0.322351
21
G: 25 x 25 i: 0 j: 20 E: 0.3544168764110509
C -1.931077 0.154333 -0.513717
H -2.592206 0.617215 -1.25926
H 0.324808 -0.026909 -1.411898
C -0.761698 1.121909 -0.188781
O -0.943586 2.110538 0.554735
N 0.385963 0.808956 -0.834219
C 1.698439 1.137899 -0.242265
H 1.493171 1.805449 0.598202
H 2.355165 1.612653 -0.976522
C -2.729434 -0.020808 0.787732
H -3.610597 -0.650416 0.625718
H -2.097385 -0.46166 1.563843
H -3.023252 0.976477 1.122893
O -1.516858 -1.16103 -1.006597
C -0.995419 -2.048056 0.072142
H -1.817628 -2.408549 0.705827
H -0.55855 -2.898446 -0.461117
H -0.217284 -1.558758 0.685683
C 2.354528 -0.229737 0.260763
O 1.64917 -0.828654 1.151744
O 3.465023 -0.541227 -0.251018
21
G: 25 x 25 i: 1 j: 20 E: 0.29911765846372873
C -1.923005 0.170735 -0.582433
H -2.39818 0.634034 -1.458488
H 0.352024 -0.028033 -1.412537
C -0.731875 1.049514 -0.118355
O -0.888588 1.973419 0.708141
N 0.405568 0.789759 -0.807191
C 1.725832 1.125749 -0.236014
H 1.526497 1.76436 0.628066
H 2.350327 1.637608 -0.973512
C -2.949344 0.131658 0.557243
H -3.836984 -0.43573 0.259407
H -2.510818 -0.31672 1.452882
H -3.214531 1.162325 0.803306
O -1.556896 -1.202813 -0.935156
C -1.094404 -2.000798 0.234089
H -1.926057 -2.198028 0.924902
H -0.763725 -2.949634 -0.200219
H -0.246151 -1.529646 0.763931
C 2.437709 -0.230412 0.216379
O 1.778138 -0.875575 1.108999
O 3.547238 -0.488471 -0.327341
21
G: 25 x 25 i: 2 j: 20 E: 0.29917657113946916
C -1.901531 0.19341 -0.634318
H -2.210185 0.648802 -1.585063
H 0.386723 0.025124 -1.438989
C -0.702201 0.976749 -0.047508
O -0.838288 1.796953 0.883313
N 0.425347 0.80823 -0.786676
C 1.749568 1.124859 -0.209749
H 1.551111 1.713639 0.689076
H 2.357107 1.683753 -0.926841
C -3.06786 0.276087 0.356704
H -3.926717 -0.286081 -0.023231
H -2.769144 -0.119246 1.330825
H -3.332732 1.326406 0.50047
O -1.622523 -1.224711 -0.876512
C -1.193826 -1.951181 0.347828
H -1.998463 -1.971756 1.096748
H -1.008135 -2.973835 0.003785
H -0.263858 -1.540895 0.782861
C 2.491761 -0.236092 0.169124
O 1.855903 -0.937824 1.035285
O 3.602582 -0.442733 -0.394011
21
G: 25 x 25 i: 3 j: 20 E: 0.3521438268126076
C -1.878013 0.210168 -0.689347
H -2.013517 0.635611 -1.691691
H 0.446081 0.122962 -1.436613
C -0.695988 0.902164 0.026221
O -0.844549 1.58403 1.05998
N 0.446164 0.841305 -0.711929
C 1.757779 1.122876 -0.085392
H 1.534402 1.568571 0.886903
H 2.340061 1.804927 -0.710855
C -3.149486 0.428507 0.136815
H -3.971534 -0.150256 -0.294942
H -2.980078 0.124729 1.172331
H -3.403813 1.492282 0.14738
O -1.719705 -1.242605 -0.813883
C -1.305408 -1.893114 0.454849
H -2.024446 -1.689023 1.261869
H -1.325763 -2.964677 0.229618
H -0.283337 -1.605484 0.762239
C 2.566935 -0.239279 0.100652
O 1.972363 -1.092192 0.851536
O 3.689877 -0.301322 -0.473322
21
G: 25 x 25 i: 4 j: 20 E: 0.43057259584747953
C -1.848072 0.202056 -0.747973
H -1.808317 0.548315 -1.787722
H 0.530802 0.2424 -1.3985
C -0.710552 0.833635 0.082948
O -0.911054 1.36695 1.192947
N 0.469869 0.866348 -0.594142
C 1.747305 1.081146 0.127683
H 1.477266 1.279318 1.16773
H 2.292723 1.924109 -0.30486
C -3.187931 0.583612 -0.114323
H -3.988633 0.010182 -0.589679
H -3.153535 0.370197 0.956524
H -3.375588 1.656079 -0.232088
O -1.850201 -1.267004 -0.7136
C -1.385284 -1.818582 0.584365
H -1.903375 -1.343836 1.430536
H -1.660024 -2.878473 0.547267
H -0.291426 -1.722016 0.705845
C 2.647032 -0.231166 0.018462
O 2.105237 -1.275733 0.52718
O 3.783023 -0.081076 -0.511907
21
G: 25 x 25 i: 5 j: 20 E: 0.49360681655707594
C -1.815131 0.214115 -0.769635
H -1.655143 0.496446 -1.817747
H 0.589005 0.464824 -1.405101
C -0.698415 0.772509 0.135769
O -0.92469 1.126352 1.312642
N 0.493636 0.922443 -0.500461
C 1.754018 1.039449 0.271584
H 1.461982 1.063815 1.323759
H 2.293038 1.947566 -0.010495
C -3.154993 0.753999 -0.266662
H -3.968384 0.202542 -0.745542
H -3.189944 0.620368 0.817419
H -3.25231 1.824608 -0.481198
O -2.009797 -1.240521 -0.638911
C -1.424838 -1.81662 0.59837
H -1.769902 -1.277609 1.491134
H -1.800477 -2.845542 0.622197
H -0.32061 -1.819177 0.57463
C 2.67379 -0.229507 -0.03514
O 2.140412 -1.34849 0.287014
O 3.812912 0.020332 -0.519688
21
G: 25 x 25 i: 6 j: 20 E: 0.5279393268556305
C -1.773555 0.113188 -0.767016
H -1.405718 0.106238 -1.803044
H 0.666739 0.277902 -1.192054
C -0.744121 0.758162 0.180605
O -1.069671 1.187781 1.306928
N 0.50563 0.832877 -0.351452
C 1.703091 0.846089 0.531902
H 1.38747 0.518475 1.526898
H 2.146151 1.843541 0.574898
C -3.089889 0.877382 -0.652079
H -3.895766 0.284096 -1.092462
H -3.274317 1.031397 0.414595
H -3.027798 1.851772 -1.150191
O -2.24597 -1.196308 -0.27831
C -1.35384 -1.867737 0.697983
H -1.358232 -1.321468 1.65045
H -1.802682 -2.856639 0.840905
H -0.306349 -1.973375 0.367958
C 2.732898 -0.178331 -0.120494
O 2.264647 -1.374427 -0.188445
O 3.861443 0.272379 -0.453072
21
G: 25 x 25 i: 7 j: 20 E: 0.5737214948803739
C -1.733304 0.17769 -0.749589
H -1.338409 0.176674 -1.776574
H 0.672422 0.621101 -1.241321
C -0.687611 0.690113 0.258228
O -0.990754 0.891106 1.452828
N 0.527253 0.960492 -0.292649
C 1.757237 0.889034 0.539683
H 1.439849 0.595114 1.543076
H 2.276328 1.850302 0.555678
C -2.977052 1.05909 -0.633466
H -3.815706 0.577092 -1.14381
H -3.193019 1.148758 0.434765
H -2.802326 2.054509 -1.05719
O -2.350814 -1.081329 -0.315502
C -1.468493 -1.943061 0.51124
H -1.475659 -1.587785 1.548455
H -1.910925 -2.943586 0.454237
H -0.415692 -1.974558 0.179094
C 2.699371 -0.215336 -0.126925
O 2.167147 -1.38146 -0.168881
O 3.840856 0.173402 -0.498807
21
G: 25 x 25 i: 8 j: 20 E: 0.6314587723318255
C -1.682841 0.243965 -0.720474
H -1.274601 0.248635 -1.743063
H 0.672835 0.956225 -1.214344
C -0.608784 0.613209 0.320126
O -0.868743 0.587857 1.540349
N 0.554379 1.084896 -0.211694
C 1.817031 0.923848 0.554625
H 1.520229 0.659427 1.571444
H 2.406946 1.843034 0.531942
C -2.830805 1.247874 -0.576719
H -3.697265 0.897752 -1.145576
H -3.078629 1.27982 0.488033
H -2.534137 2.245527 -0.918679
O -2.436892 -0.948839 -0.346707
C -1.616929 -1.992965 0.319749
H -1.652969 -1.841098 1.403655
H -2.075919 -2.95195 0.053508
H -0.55195 -1.983055 0.028281
C 2.640968 -0.261007 -0.137562
O 2.028548 -1.385016 -0.136775
O 3.786208 0.046232 -0.573343
21
G: 25 x 25 i: 9 j: 20 E: 0.6860965084360942
C -1.60854 0.283155 -0.682309
H -1.159147 0.22338 -1.686386
H 0.685046 1.201658 -1.100113
C -0.530371 0.549995 0.387869
O -0.756858 0.345897 1.59538
N 0.588146 1.180621 -0.086131
C 1.874133 0.90436 0.609922
H 1.607671 0.616603 1.628255
H 2.523071 1.782675 0.58851
C -2.633367 1.421494 -0.604708
H -3.491468 1.188543 -1.242955
H -2.96236 1.477664 0.437001
H -2.187298 2.375436 -0.905311
O -2.50394 -0.800954 -0.321249
C -1.790083 -2.00176 0.186236
H -1.860561 -2.018035 1.278049
H -2.295229 -2.875142 -0.243914
H -0.716563 -2.009106 -0.067421
C 2.565424 -0.311083 -0.167721
O 1.866591 -1.383251 -0.168336
O 3.703787 -0.074814 -0.663112
21
G: 25 x 25 i: 10 j: 20 E: 0.7176889943584683
C -1.462922 0.311785 -0.630715
H -0.894698 0.084903 -1.546461
H 0.731265 1.433117 -0.828264
C -0.461965 0.509942 0.52712
O -0.70254 0.141749 1.689164
N 0.64851 1.248923 0.172277
C 1.939172 0.762933 0.748141
H 1.697206 0.359992 1.732543
H 2.668459 1.574243 0.803383
C -2.292289 1.590868 -0.797569
H -3.040711 1.44691 -1.583677
H -2.805722 1.780431 0.149772
H -1.649874 2.442799 -1.043398
O -2.535698 -0.606583 -0.315934
C -2.023629 -1.930666 0.124868
H -2.130856 -2.007534 1.210211
H -2.631256 -2.692884 -0.37902
H -0.955852 -2.053722 -0.114623
C 2.444669 -0.38637 -0.237962
O 1.627124 -1.36935 -0.329525
O 3.562894 -0.198525 -0.794918
21
G: 25 x 25 i: 11 j: 20 E: 0.7124011669202446
C -1.294294 0.354669 -0.578289
H -0.655614 -0.054014 -1.375221
H 0.819017 1.592084 -0.457055
C -0.402789 0.428542 0.67216
O -0.694624 -0.10035 1.755581
N 0.727327 1.228305 0.494518
C 1.990884 0.519354 0.897037
H 1.75029 -0.036306 1.804033
H 2.800139 1.235863 1.055863
C -1.852021 1.740235 -0.928094
H -2.47277 1.667499 -1.827046
H -2.47873 2.07658 -0.096532
H -1.050551 2.466828 -1.095089
O -2.550998 -0.334822 -0.354376
C -2.32462 -1.753453 0.01844
H -2.489182 -1.875391 1.091722
H -3.038695 -2.358523 -0.555421
H -1.290816 -2.051982 -0.203341
C 2.318843 -0.458414 -0.315961
O 1.385572 -1.319594 -0.528253
O 3.409999 -0.276031 -0.922364
21
G: 25 x 25 i: 12 j: 20 E: 0.8052582075833925
C -1.242199 0.426715 -0.514375
H -0.666711 0.020726 -1.359421
H 0.847653 1.653303 -0.048075
C -0.35677 0.206524 0.719114
O -0.652735 -0.563775 1.645068
N 0.74684 1.067704 0.784542
C 2.017491 0.283184 0.999006
H 1.796147 -0.44734 1.777468
H 2.834896 0.951569 1.27934
C -1.595871 1.909812 -0.705912
H -2.25117 2.005153 -1.577611
H -2.139314 2.257423 0.177814
H -0.709909 2.533364 -0.856303
O -2.599314 -0.067003 -0.335947
C -2.603833 -1.5451 -0.231768
H -2.782089 -1.839644 0.804363
H -3.400183 -1.923229 -0.887206
H -1.630578 -1.956597 -0.532634
C 2.300384 -0.427024 -0.399542
O 1.347658 -1.220965 -0.751303
O 3.374161 -0.129922 -0.991402
21
G: 25 x 25 i: 13 j: 20 E: 0.8734930704194994
C -1.256847 0.568652 -0.214028
H -0.800408 0.490681 -1.216837
H 0.846676 1.21787 0.965744
C -0.383184 -0.368136 0.636721
O -0.683524 -1.558872 0.848882
N 0.733924 0.232741 1.198223
C 2.009715 -0.515136 0.947246
H 1.764498 -1.575147 1.016299
H 2.774698 -0.220032 1.669601
C -1.262221 2.027289 0.270423
H -2.014969 2.56813 -0.310447
H -1.538556 2.069101 1.328486
H -0.293733 2.51324 0.121127
O -2.695574 0.32837 -0.10001
C -3.118552 -0.883104 -0.810837
H -2.618826 -1.757629 -0.39366
H -4.204745 -0.945174 -0.67451
H -2.892238 -0.815835 -1.887936
C 2.420641 -0.106137 -0.543791
O 1.525934 -0.446005 -1.397615
O 3.526018 0.487138 -0.691236
21
G: 25 x 25 i: 14 j: 20 E: 0.9250739598574
C -1.246535 0.575249 -0.138375
H -0.925868 0.637591 -1.191168
H 0.805271 0.798751 1.332915
C -0.389941 -0.574313 0.42062
O -0.697007 -1.768698 0.22925
N 0.691943 -0.205063 1.207291
C 1.982152 -0.831042 0.767455
H 1.747923 -1.857008 0.482957
H 2.723799 -0.782566 1.568387
C -1.013656 1.933885 0.534029
H -1.772887 2.626265 0.1591
H -1.124407 1.849974 1.620485
H -0.024161 2.325801 0.28098
O -2.68447 0.45075 0.128562
C -3.325782 -0.54804 -0.731761
H -2.857428 -1.52292 -0.592637
H -4.381342 -0.566511 -0.435777
H -3.255249 -0.264993 -1.796262
C 2.425789 0.040868 -0.499069
O 1.556654 -0.007355 -1.440568
O 3.528397 0.651731 -0.41692
21
G: 25 x 25 i: 15 j: 20 E: 0.9180213372892467
C -1.258624 0.563496 -0.140392
H -1.156564 0.657264 -1.232501
H 0.742111 0.308985 1.451093
C -0.461741 -0.718216 0.175672
O -0.811316 -1.80691 -0.330966
N 0.613522 -0.61561 1.044157
C 1.899317 -1.117417 0.454897
H 1.637294 -1.940326 -0.210522
H 2.591606 -1.429108 1.240713
C -0.684216 1.841236 0.461446
H -1.350843 2.672786 0.212584
H -0.607723 1.779696 1.553542
H 0.292267 1.990883 -0.010272
O -2.638078 0.579021 0.373905
C -3.524659 -0.285425 -0.405819
H -3.137523 -1.305359 -0.446919
H -4.499269 -0.249878 0.094639
H -3.637735 0.083972 -1.440702
C 2.460753 0.144964 -0.345778
O 1.648474 0.522473 -1.267972
O 3.581763 0.601483 0.009919
21
G: 25 x 25 i: 16 j: 20 E: 0.8651580835685309
C -1.43869 0.572665 -0.304658
H -1.639153 0.578889 -1.388635
H 0.604724 0.322525 1.195063
C -0.579836 -0.699149 -0.093039
O -0.903881 -1.766818 -0.664259
N 0.491154 -0.582201 0.747239
C 1.799227 -1.156324 0.320585
H 1.591288 -1.820129 -0.520908
H 2.2867 -1.687374 1.141589
C -0.704959 1.862334 0.044858
H -1.30324 2.723124 -0.270265
H -0.555607 1.937527 1.129303
H 0.260785 1.841007 -0.483778
O -2.657375 0.645109 0.52266
C -3.658883 -0.328826 0.089489
H -3.23862 -1.336593 0.029774
H -4.46531 -0.283576 0.829534
H -4.065034 -0.072807 -0.905135
C 2.672252 0.117582 -0.11784
O 2.138712 0.767727 -1.085072
O 3.741386 0.311871 0.523723
21
G: 25 x 25 i: 17 j: 20 E: 0.8044208312730916
C -1.451573 0.583601 -0.37671
H -1.760599 0.567533 -1.432783
H 0.475683 0.270296 1.25675
C -0.555902 -0.666771 -0.21799
O -0.796791 -1.693746 -0.892745
N 0.412664 -0.607533 0.747221
C 1.754358 -1.160807 0.409213
H 1.599824 -1.867007 -0.408262
H 2.212442 -1.638412 1.278643
C -0.69469 1.876807 -0.095561
H -1.277118 2.738298 -0.437883
H -0.536994 1.989593 0.984466
H 0.272431 1.813769 -0.619127
O -2.576629 0.64867 0.57915
C -3.571998 -0.380316 0.285016
H -3.113657 -1.36951 0.179887
H -4.279319 -0.370525 1.121212
H -4.113663 -0.162161 -0.651881
C 2.614902 0.108122 -0.056401
O 2.108796 0.69069 -1.080783
O 3.647341 0.369017 0.621006
21
G: 25 x 25 i: 18 j: 20 E: 0.7627541420843045
C -1.486229 0.586744 -0.445498
H -1.916186 0.554086 -1.456767
H 0.31831 0.182638 1.274375
C -0.552012 -0.640822 -0.364773
O -0.699625 -1.602569 -1.148913
N 0.322245 -0.650405 0.690031
C 1.69219 -1.172262 0.431762
H 1.60008 -1.869582 -0.402506
H 2.100322 -1.653851 1.323729
C -0.702256 1.881838 -0.240015
H -1.267763 2.741221 -0.614917
H -0.539102 2.033336 0.834388
H 0.27059 1.780209 -0.748172
O -2.481107 0.650274 0.645976
C -3.454274 -0.429771 0.514319
H -2.968548 -1.403038 0.369927
H -4.040137 -0.434323 1.439474
H -4.129357 -0.266024 -0.343219
C 2.566247 0.106071 0.028735
O 2.120177 0.689974 -1.0233
O 3.552316 0.374494 0.769524
21
G: 25 x 25 i: 19 j: 20 E: 0.7134941670865373
C -1.558935 0.618083 -0.489398
H -2.113576 0.627754 -1.438413
H 0.092628 -0.04449 1.243473
C -0.585834 -0.578297 -0.593024
O -0.59242 -1.339027 -1.579094
N 0.202236 -0.745756 0.514005
C 1.597438 -1.211533 0.312663
H 1.590049 -1.789326 -0.613249
H 1.934358 -1.808373 1.163948
C -0.745975 1.906084 -0.298848
H -1.283399 2.774852 -0.693202
H -0.60526 2.056748 0.77846
H 0.246867 1.787786 -0.765659
O -2.404135 0.630886 0.719991
C -3.160347 -0.604602 0.854626
H -2.501605 -1.476011 0.972977
H -3.77713 -0.48964 1.752272
H -3.814247 -0.790166 -0.013628
C 2.497947 0.100989 0.154183
O 2.148625 0.820191 -0.849182
O 3.416667 0.261302 1.005007
21
G: 25 x 25 i: 20 j: 20 E: 0.6314901470705081
C -1.631859 0.669888 -0.38149
H -2.339282 0.805536 -1.211354
H -0.053413 -0.414985 1.118721
C -0.608879 -0.39382 -0.825592
O -0.534233 -0.795856 -2.000582
N 0.138643 -0.858403 0.222033
C 1.551204 -1.233443 -0.022894
H 1.605273 -1.522048 -1.074518
H 1.85637 -2.047772 0.639196
C -0.851254 1.963917 -0.058997
H -1.361849 2.848544 -0.453505
H -0.808937 2.04673 1.033201
H 0.183159 1.891184 -0.439936
O -2.246889 0.398212 0.932853
C -2.921861 -0.892346 0.955993
H -2.214477 -1.716438 0.795962
H -3.371934 -0.984299 1.949978
H -3.71501 -0.960182 0.193145
C 2.440921 0.067399 0.2448
O 2.1379 1.044176 -0.529646
O 3.315716 -0.02491 1.150371
21
G: 25 x 25 i: 21 j: 20 E: 0.5120010131886374
C -1.812347 0.39311 0.387317
H -2.768885 0.894138 0.179884
H 0.056598 -0.949467 -0.233652
C -0.764271 0.829124 -0.657101
O -0.817465 1.939049 -1.219149
N 0.191505 -0.129167 -0.824291
C 1.606174 0.246555 -1.061775
H 1.627516 1.335069 -1.162432
H 2.001507 -0.239923 -1.957218
C -1.230248 0.807473 1.752668
H -1.411943 1.87662 1.906697
H -1.729619 0.232798 2.540039
H -0.139274 0.643155 1.766073
O -1.899521 -1.062732 0.579042
C -2.409038 -1.729838 -0.615791
H -1.730586 -1.59136 -1.466958
H -2.475067 -2.793391 -0.367468
H -3.408665 -1.358596 -0.895076
C 2.437255 -0.238092 0.217161
O 2.05317 0.305033 1.312571
O 3.372907 -1.055709 -0.006805
21
G: 25 x 25 i: 22 j: 20 E: 0.49405376374852494
C -1.808063 0.421457 0.250175
H -2.767515 0.835704 -0.089079
H 0.004242 -1.033971 -0.282069
C -0.677277 0.784742 -0.732829
O -0.632549 1.901243 -1.281425
N 0.193667 -0.251255 -0.909976
C 1.634748 0.04986 -1.107083
H 1.692738 1.105834 -1.382159
H 2.064885 -0.591238 -1.880361
C -1.34279 1.044718 1.581916
H -1.498539 2.127322 1.537017
H -1.92041 0.614483 2.40665
H -0.26197 0.861211 1.7004
O -1.833907 -0.992442 0.654925
C -2.365469 -1.841627 -0.41248
H -1.736041 -1.788502 -1.309754
H -2.36364 -2.863035 -0.02073
H -3.395039 -1.555516 -0.681087
C 2.366199 -0.223114 0.290286
O 1.928146 0.508698 1.245845
O 3.286001 -1.088715 0.274541
21
G: 25 x 25 i: 23 j: 20 E: 0.5633008089043869
C -1.786595 0.417582 0.133363
H -2.725377 0.758505 -0.324138
H -0.001308 -1.088785 -0.41434
C -0.567627 0.784493 -0.738241
O -0.437113 1.935564 -1.191201
N 0.228033 -0.294018 -1.015854
C 1.691258 -0.033941 -1.117757
H 1.797332 1.00226 -1.446146
H 2.157804 -0.734368 -1.814167
C -1.486121 1.144963 1.459431
H -1.589306 2.221587 1.29562
H -2.176359 0.804539 2.237872
H -0.436503 0.940038 1.718108
O -1.786991 -0.963564 0.643104
C -2.333653 -1.896013 -0.347228
H -1.736236 -1.892435 -1.268308
H -2.295643 -2.887942 0.112478
H -3.377598 -1.649441 -0.598186
C 2.290716 -0.22923 0.35403
O 1.785653 0.576999 1.210909
O 3.180839 -1.116869 0.481011
21
G: 25 x 25 i: 24 j: 20 E: 0.7043488248473295
C -1.692913 0.45302 0.108668
H -2.626818 0.702548 -0.413103
H 0.01535 -1.175335 -0.372161
C -0.471079 0.688316 -0.805438
O -0.262119 1.817652 -1.281033
N 0.25725 -0.449913 -1.05265
C 1.735138 -0.234414 -1.123326
H 1.775625 0.760026 -1.571761
H 2.299958 -0.973095 -1.696338
C -1.43654 1.364036 1.324179
H -1.445564 2.403517 0.986616
H -2.192064 1.194526 2.097382
H -0.424887 1.126152 1.678366
O -1.735733 -0.909658 0.669054
C -2.453723 -1.831493 -0.215001
H -1.972537 -1.902189 -1.199978
H -2.427501 -2.808407 0.275661
H -3.501531 -1.522336 -0.354634
C 2.237283 -0.180742 0.396707
O 1.48994 0.556354 1.133224
O 3.156691 -0.990393 0.706725
21
G: 25 x 25 i: 24 j: 21 E: 0.6016169316117157
C -1.659769 0.566781 0.05305
H -2.594124 0.712275 -0.506858
H -0.047894 -1.192059 0.246365
C -0.504251 0.310077 -0.93893
O -0.231558 1.157093 -1.807295
N 0.176128 -0.859049 -0.695882
C 1.646578 -0.774899 -0.909367
H 1.800017 -0.11812 -1.769895
H 2.074958 -1.764613 -1.080845
C -1.256101 1.809924 0.865424
H -1.166048 2.657251 0.180708
H -1.992113 2.014344 1.64928
H -0.26406 1.590274 1.27837
O -1.873836 -0.606049 0.920307
C -2.731355 -1.60282 0.272197
H -2.286546 -1.967301 -0.663624
H -2.826051 -2.431471 0.980293
H -3.731107 -1.194098 0.054253
C 2.285178 -0.114596 0.403686
O 1.644442 0.913646 0.815372
O 3.35075 -0.647182 0.824961
21
G: 25 x 25 i: 23 j: 21 E: 0.46812584705003246
C -1.666898 0.628153 0.006819
H -2.600552 0.807544 -0.543811
H -0.032347 -1.001208 0.580153
C -0.60237 0.086543 -0.969182
O -0.388808 0.652249 -2.056704
N 0.153375 -0.913575 -0.421789
C 1.600854 -0.916578 -0.748747
H 1.697944 -0.432787 -1.724963
H 1.998849 -1.933434 -0.771298
C -1.07277 1.917544 0.606276
H -1.000246 2.668834 -0.185587
H -1.70403 2.277923 1.424784
H -0.055759 1.671518 0.944376
O -1.981913 -0.367507 1.043626
C -2.827099 -1.441319 0.51336
H -2.323029 -1.976049 -0.301736
H -3.010003 -2.126511 1.346382
H -3.789022 -1.051059 0.144227
C 2.363704 -0.06216 0.369587
O 1.793256 1.048727 0.648022
O 3.44897 -0.556325 0.786471
21
G: 25 x 25 i: 22 j: 21 E: 0.39064977622547303
C -1.69322 0.610715 -0.243888
H -2.635386 0.613451 -0.80895
H 0.07644 -0.426727 0.92283
C -0.733521 -0.407082 -0.891801
O -0.658254 -0.54436 -2.1273
N 0.174173 -0.878937 0.011257
C 1.588099 -1.040874 -0.40707
H 1.615391 -0.899396 -1.492385
H 1.977381 -2.02606 -0.139773
C -0.965207 1.969873 -0.28455
H -0.907204 2.310088 -1.323411
H -1.511446 2.698718 0.323086
H 0.057841 1.815069 0.096321
O -2.032755 0.208408 1.127155
C -2.826014 -1.021736 1.144204
H -2.264394 -1.858155 0.710404
H -3.044372 -1.229862 2.195753
H -3.772177 -0.900621 0.592362
C 2.447788 0.081466 0.338234
O 1.920286 1.249268 0.308111
O 3.55587 -0.30058 0.806308
21
G: 25 x 25 i: 21 j: 21 E: 0.39204087724283454
C -1.688368 0.531916 -0.454468
H -2.599724 0.364314 -1.046567
H 0.1876 0.092282 0.920612
C -0.803498 -0.721938 -0.6168
O -0.837985 -1.442253 -1.632287
N 0.209534 -0.715982 0.295924
C 1.589225 -1.076035 -0.106758
H 1.583567 -1.250228 -1.188618
H 1.949894 -1.965816 0.414852
C -0.881463 1.749368 -0.944614
H -0.801252 1.70841 -2.036367
H -1.39877 2.667294 -0.646021
H 0.132581 1.711125 -0.51412
O -2.13762 0.667479 0.936466
C -2.870984 -0.512984 1.383883
H -2.22938 -1.402572 1.376087
H -3.194175 -0.301347 2.407615
H -3.756398 -0.706831 0.756097
C 2.519593 0.164753 0.273619
O 2.029223 1.30113 -0.06913
O 3.630418 -0.11576 0.799424
21
G: 25 x 25 i: 20 j: 21 E: 0.4878256737065385
C -1.682235 0.560201 -0.474084
H -2.532907 0.372106 -1.14678
H 0.316658 0.257156 0.803556
C -0.832917 -0.732221 -0.524416
O -0.963387 -1.59399 -1.414473
N 0.262011 -0.617241 0.276853
C 1.60836 -1.042509 -0.167531
H 1.591056 -1.169008 -1.256815
H 1.929894 -1.970439 0.310872
C -0.843695 1.767492 -0.929718
H -0.734991 1.734655 -2.019851
H -1.366354 2.686932 -0.645372
H 0.161741 1.737244 -0.482671
O -2.289399 0.724758 0.853507
C -2.932888 -0.498837 1.311217
H -2.201936 -1.305495 1.449184
H -3.397667 -0.256947 2.272215
H -3.710446 -0.845221 0.609746
C 2.593403 0.139852 0.258507
O 2.136358 1.30677 -0.033138
O 3.697766 -0.19806 0.759616
21
G: 25 x 25 i: 19 j: 21 E: 0.6450394089551992
C -1.692143 0.600521 -0.453166
H -2.45446 0.398121 -1.221256
H 0.474501 0.383334 0.657337
C -0.826472 -0.69071 -0.47588
O -1.049659 -1.626151 -1.269385
N 0.334307 -0.526459 0.207912
C 1.64839 -1.000487 -0.278801
H 1.640273 -1.036576 -1.375638
H 1.917317 -1.97794 0.126667
C -0.879431 1.86324 -0.790186
H -0.75466 1.92553 -1.877587
H -1.438345 2.738942 -0.444383
H 0.123769 1.845266 -0.34305
O -2.477598 0.692561 0.788396
C -2.986852 -0.604658 1.205671
H -2.171151 -1.287164 1.478246
H -3.614933 -0.416033 2.08242
H -3.592837 -1.087341 0.420884
C 2.675563 0.104953 0.248268
O 2.250007 1.304355 0.040763
O 3.764257 -0.300525 0.728416
21
G: 25 x 25 i: 18 j: 21 E: 0.5859665417356155
C -1.859629 0.632561 -0.278195
H -2.677599 0.407523 -0.977117
H 0.807427 0.991538 -0.086903
C -0.737209 -0.349512 -0.682759
O -1.050801 -1.449323 -1.212659
N 0.509864 0.067884 -0.442889
C 1.741549 -0.695587 -0.690656
H 2.07726 -0.576073 -1.730273
H 1.585963 -1.751538 -0.463846
C -1.491817 2.114477 -0.28598
H -1.078212 2.408375 -1.255269
H -2.379716 2.714575 -0.063206
H -0.750208 2.301755 0.495205
O -2.363903 0.213473 1.043873
C -2.938584 -1.132031 0.994931
H -2.282751 -1.829078 0.462265
H -3.068717 -1.445896 2.034971
H -3.918284 -1.131625 0.486584
C 2.79631 -0.016961 0.300996
O 2.720112 1.266758 0.233347
O 3.576102 -0.766212 0.941412
21
G: 25 x 25 i: 17 j: 21 E: 0.553056561620906
C -1.792829 0.678369 -0.302907
H -2.510813 0.533694 -1.123898
H 0.900321 0.955163 -0.215497
C -0.712603 -0.402076 -0.53611
O -1.070669 -1.557506 -0.895745
N 0.554095 -0.005505 -0.382305
C 1.75103 -0.844321 -0.543277
H 2.037179 -0.923824 -1.601365
H 1.582329 -1.836804 -0.122739
C -1.308467 2.123397 -0.220884
H -0.732216 2.39425 -1.110604
H -2.169687 2.790802 -0.118899
H -0.6791 2.236645 0.666128
O -2.543847 0.29972 0.912141
C -3.273048 -0.958563 0.737085
H -2.62107 -1.735651 0.328196
H -3.639469 -1.234446 1.730971
H -4.131476 -0.832677 0.053857
C 2.867383 -0.03198 0.262591
O 2.816567 1.220649 -0.035228
O 3.660016 -0.67506 0.995208
21
G: 25 x 25 i: 16 j: 21 E: 0.5415578417414508
C -1.748582 0.691382 -0.286079
H -2.345975 0.599882 -1.207659
H 0.950784 0.923896 -0.297311
C -0.691841 -0.436328 -0.383438
O -1.062977 -1.622937 -0.599205
N 0.584634 -0.043106 -0.339806
C 1.764778 -0.913436 -0.453465
H 2.00406 -1.116049 -1.50673
H 1.604428 -1.849198 0.083852
C -1.221022 2.112968 -0.107312
H -0.557769 2.393068 -0.931075
H -2.067515 2.804884 -0.064075
H -0.671636 2.174724 0.836051
O -2.695083 0.338615 0.790477
C -3.481816 -0.856812 0.476175
H -2.826867 -1.684562 0.195466
H -4.051338 -1.085693 1.383004
H -4.184799 -0.666563 -0.354827
C 2.921521 -0.03065 0.208203
O 2.86936 1.180701 -0.229066
O 3.738194 -0.595802 0.977475
21
G: 25 x 25 i: 15 j: 21 E: 0.5430486997411208
C -1.716703 0.696119 -0.243796
H -2.172817 0.657111 -1.248443
H 0.975696 0.892067 -0.363892
C -0.676116 -0.455464 -0.221865
O -1.04816 -1.65805 -0.291897
N 0.602587 -0.070337 -0.292271
C 1.772587 -0.958208 -0.375643
H 1.957089 -1.268961 -1.413476
H 1.636936 -1.832922 0.261789
C -1.183304 2.098123 0.0525
H -0.453447 2.412562 -0.699084
H -2.024285 2.797876 0.059436
H -0.709794 2.103614 1.037838
O -2.823512 0.350291 0.663568
C -3.608369 -0.794063 0.191669
H -2.958934 -1.656015 0.032233
H -4.351692 -0.98689 0.972773
H -4.132193 -0.558321 -0.752815
C 2.96379 -0.022461 0.134308
O 2.893554 1.138826 -0.420847
O 3.816121 -0.51257 0.91624
21
G: 25 x 25 i: 14 j: 21 E: 0.5405627209675004
C -1.691721 0.703426 -0.190358
H -1.982244 0.728079 -1.256545
H 0.97804 0.850891 -0.43463
C -0.667491 -0.459036 -0.055946
O -1.039001 -1.658641 0.032067
N 0.608261 -0.093551 -0.230877
C 1.771615 -0.992995 -0.281538
H 1.892728 -1.424509 -1.285008
H 1.677686 -1.78606 0.461411
C -1.186072 2.079398 0.255921
H -0.380484 2.441134 -0.388628
H -2.022646 2.783547 0.218719
H -0.818312 2.014003 1.28306
O -2.927594 0.34569 0.514849
C -3.643885 -0.767355 -0.115201
H -3.00356 -1.648923 -0.150283
H -4.531128 -0.938297 0.504435
H -3.968478 -0.507417 -1.13958
C 2.990315 -0.011244 0.043174
O 2.885441 1.078486 -0.637626
O 3.889155 -0.411878 0.824069
21
G: 25 x 25 i: 13 j: 21 E: 0.5192460203325027
C -1.671121 0.715694 -0.143377
H -1.772625 0.815193 -1.239584
H 0.959758 0.786144 -0.535661
C -0.664139 -0.444982 0.104778
O -1.038192 -1.614778 0.371437
N 0.605975 -0.111894 -0.160935
C 1.768264 -1.014207 -0.149483
H 1.829112 -1.594452 -1.080922
H 1.729147 -1.684098 0.710395
C -1.24334 2.05209 0.47927
H -0.312958 2.424651 0.045447
H -2.039972 2.784967 0.31741
H -1.103171 1.911696 1.554269
O -2.999821 0.331444 0.329368
C -3.577216 -0.78425 -0.42585
H -2.944808 -1.666388 -0.324705
H -4.568908 -0.9547 0.007846
H -3.695453 -0.52983 -1.494877
C 2.99796 0.002227 -0.054067
O 2.842805 0.977504 -0.883143
O 3.947159 -0.277841 0.719751
21
G: 25 x 25 i: 12 j: 21 E: 0.48285197462791984
C -1.6534 0.729758 -0.117432
H -1.594578 0.885726 -1.209498
H 0.91486 0.698424 -0.666533
C -0.664739 -0.420925 0.227641
O -1.039617 -1.527044 0.686896
N 0.587965 -0.143721 -0.159129
C 1.76378 -1.021302 -0.053757
H 1.816708 -1.718244 -0.901812
H 1.750517 -1.571511 0.887946
C -1.314932 2.026454 0.633474
H -0.305597 2.370694 0.399559
H -2.043565 2.799117 0.367614
H -1.386349 1.829844 1.707072
O -3.026447 0.320677 0.149051
C -3.443916 -0.834657 -0.649061
H -2.825918 -1.699484 -0.404407
H -4.491401 -1.015921 -0.383807
H -3.382441 -0.624384 -1.731853
C 2.980925 0.013619 -0.118049
O 2.796508 0.869565 -1.064032
O 3.947769 -0.151434 0.667177
21
G: 25 x 25 i: 11 j: 21 E: 0.4664072296618542
C -1.642382 0.743492 -0.120479
H -1.459295 0.922858 -1.194196
H 0.862896 0.57964 -0.809014
C -0.663159 -0.377041 0.325751
O -1.02825 -1.379469 0.984978
N 0.558978 -0.195941 -0.192972
C 1.754779 -1.022068 0.032891
H 1.832152 -1.819222 -0.719218
H 1.740479 -1.447405 1.037215
C -1.4102 2.025743 0.691102
H -0.378948 2.368802 0.578356
H -2.106245 2.803826 0.36108
H -1.604316 1.800916 1.744078
O -3.023731 0.294807 -0.026618
C -3.275016 -0.93397 -0.780637
H -2.680675 -1.753885 -0.372812
H -4.34497 -1.139598 -0.665933
H -3.049403 -0.80908 -1.854425
C 2.952279 0.021976 -0.154457
O 2.761742 0.745036 -1.203496
O 3.912448 -0.020882 0.655217
21
G: 25 x 25 i: 10 j: 21 E: 0.48353824604964757
C -1.659715 0.739037 -0.199158
H -1.345153 0.882425 -1.246136
H 0.824498 0.396717 -0.920769
C -0.662999 -0.251433 0.455848
O -1.012599 -1.059807 1.348674
N 0.542559 -0.204187 -0.125676
C 1.749087 -0.943994 0.274038
H 1.815916 -1.903553 -0.256656
H 1.757261 -1.1056 1.352824
C -1.656999 2.07008 0.562024
H -0.655944 2.509814 0.545539
H -2.381988 2.757581 0.114352
H -1.950092 1.862983 1.595507
O -2.996831 0.16328 -0.270489
C -3.005552 -1.186915 -0.830309
H -2.448425 -1.869697 -0.184047
H -4.059361 -1.482492 -0.879009
H -2.579771 -1.215184 -1.848328
C 2.937622 0.019365 -0.193809
O 2.723344 0.456135 -1.386091
O 3.913147 0.180326 0.582237
21
G: 25 x 25 i: 9 j: 21 E: 0.5071299010760413
C -1.704709 0.622837 -0.453722
H -1.288313 0.54151 -1.469446
H 0.799496 0.008569 -0.992001
C -0.670388 0.053567 0.54643
O -1.006906 -0.26534 1.712473
N 0.533564 -0.144174 -0.002902
C 1.743552 -0.629156 0.676873
H 1.789202 -1.726677 0.661928
H 1.777981 -0.262798 1.703879
C -2.029905 2.074628 -0.089368
H -1.140241 2.703033 -0.192205
H -2.834564 2.448233 -0.730474
H -2.363192 2.073136 0.95249
O -2.916041 -0.198724 -0.464129
C -2.634841 -1.631709 -0.444042
H -2.139364 -1.912103 0.490188
H -3.60861 -2.128217 -0.519186
H -2.006616 -1.945917 -1.294711
C 2.927335 -0.024254 -0.213121
O 2.68622 -0.199782 -1.465723
O 3.923354 0.465717 0.376321
21
G: 25 x 25 i: 8 j: 21 E: 0.5183528878733341
C -1.764249 0.381957 -0.657987
H -1.293221 0.070725 -1.601386
H 0.765136 -0.35819 -0.901047
C -0.693914 0.384648 0.457938
O -1.014653 0.633052 1.64588
N 0.510341 -0.026586 0.046298
C 1.722497 -0.155848 0.86746
H 1.752999 -1.131971 1.370699
H 1.775842 0.64953 1.601429
C -2.413538 1.762665 -0.760654
H -1.695313 2.504294 -1.124171
H -3.279246 1.717489 -1.428335
H -2.736142 2.026492 0.250503
O -2.774494 -0.649095 -0.376196
C -2.206735 -1.856134 0.218358
H -1.792332 -1.641571 1.209303
H -3.037027 -2.565684 0.304797
H -1.416304 -2.301218 -0.407986
C 2.901669 -0.062232 -0.20946
O 2.640859 -0.802606 -1.230153
O 3.911892 0.629382 0.073992
21
G: 25 x 25 i: 7 j: 21 E: 0.5208484994836908
C -1.841365 0.162983 -0.699612
H -1.356535 -0.230649 -1.60377
H 0.708429 -0.519293 -0.766743
C -0.746445 0.610057 0.297463
O -1.047589 1.226326 1.347627
N 0.465476 0.118747 0.011914
C 1.680041 0.254148 0.827966
H 1.691066 -0.485998 1.640218
H 1.75979 1.262709 1.236394
C -2.799834 1.31195 -0.998299
H -2.3089 2.083083 -1.600858
H -3.68223 0.932675 -1.521853
H -3.085939 1.73318 -0.030646
O -2.56097 -0.99163 -0.126793
C -1.686356 -1.879262 0.63582
H -1.30451 -1.380154 1.534928
H -2.308077 -2.733998 0.923709
H -0.828053 -2.235701 0.045338
C 2.852229 -0.060555 -0.213335
O 2.566813 -1.103201 -0.913227
O 3.880122 0.661878 -0.187622
21
G: 25 x 25 i: 6 j: 21 E: 0.49861374075044296
C -1.907179 0.022715 -0.582051
H -1.468743 -0.467907 -1.464023
H 0.635828 -0.664377 -0.4777
C -0.785047 0.78049 0.175313
O -1.046402 1.74176 0.934387
N 0.417762 0.196767 0.054693
C 1.665216 0.592955 0.725212
H 1.719475 0.17462 1.739427
H 1.752869 1.68008 0.760752
C -3.052052 0.961326 -0.942815
H -2.746054 1.653738 -1.733771
H -3.91889 0.379601 -1.26805
H -3.287344 1.535638 -0.043349
O -2.369589 -1.09118 0.271355
C -1.308719 -2.059216 0.534566
H -0.45508 -1.613703 1.059226
H -1.76089 -2.83878 1.156759
H -0.927807 -2.512942 -0.395668
C 2.793617 -0.06421 -0.198093
O 2.486963 -1.280623 -0.49123
O 3.816188 0.616581 -0.463166
21
G: 25 x 25 i: 5 j: 21 E: 0.3592664370953571
C -1.990153 -0.185654 -0.416775
H -1.823527 -0.583225 -1.43155
H 0.497696 -0.335655 -0.856936
C -0.95974 0.936001 -0.14168
O -1.229065 1.922267 0.576199
N 0.302982 0.608506 -0.511382
C 1.491722 1.106286 0.214047
H 1.245609 1.220098 1.277256
H 1.842422 2.059167 -0.188772
C -3.418376 0.306576 -0.221941
H -3.694313 1.00989 -1.014816
H -4.103053 -0.54574 -0.219972
H -3.455998 0.831427 0.735398
O -1.66085 -1.301608 0.485718
C -0.455465 -2.05804 0.110762
H 0.481405 -1.481569 0.135326
H -0.405292 -2.880471 0.833048
H -0.562139 -2.484587 -0.903101
C 2.603789 -0.008524 0.002444
O 2.146116 -1.202151 0.187755
O 3.772006 0.375398 -0.25809
21
G: 25 x 25 i: 4 j: 21 E: 0.42878056210975046
C -2.018194 -0.184837 -0.368871
H -1.959671 -0.556635 -1.407414
H 0.504301 -0.429279 -0.688108
C -0.967544 0.946935 -0.205483
O -1.255004 2.039795 0.329017
N 0.301494 0.538438 -0.427986
C 1.483009 1.097102 0.256728
H 1.267428 1.226627 1.325586
H 1.791983 2.050268 -0.177621
C -3.42054 0.304122 -0.029918
H -3.731379 1.08214 -0.733409
H -4.119562 -0.536226 -0.060252
H -3.395777 0.740144 0.970927
O -1.618276 -1.336658 0.452488
C -0.479309 -2.123319 -0.036844
H 0.497726 -1.62994 0.069869
H -0.496278 -3.04164 0.561287
H -0.61458 -2.396546 -1.099572
C 2.622571 0.008531 0.039726
O 2.20387 -1.193095 0.263575
O 3.772585 0.41881 -0.257257
21
G: 25 x 25 i: 3 j: 21 E: 0.524427532847767
C -2.02532 -0.158188 -0.323706
H -2.060174 -0.476099 -1.381832
H 0.508784 -0.514361 -0.331603
C -0.944897 0.963136 -0.218169
O -1.254782 2.143685 0.056528
N 0.311111 0.485446 -0.2506
C 1.519438 1.108452 0.311744
H 1.394957 1.293713 1.387636
H 1.776645 2.036633 -0.202051
C -3.387257 0.351682 0.136703
H -3.625999 1.285265 -0.376283
H -4.155373 -0.404941 -0.048479
H -3.329311 0.555092 1.209351
O -1.615341 -1.365251 0.405055
C -0.60035 -2.220695 -0.217185
H 0.431748 -1.889993 -0.031123
H -0.74698 -3.212454 0.226668
H -0.754582 -2.301412 -1.307726
C 2.646331 0.004707 0.064031
O 2.242005 -1.178659 0.390943
O 3.769973 0.392211 -0.341384
21
G: 25 x 25 i: 2 j: 21 E: 0.44209362907167815
C -1.865086 -0.162043 -0.304969
H -1.677864 -0.404071 -1.363063
H 0.410324 -0.408047 0.738496
C -0.899261 1.018765 0.016155
O -1.247109 2.203227 -0.197805
N 0.274559 0.573296 0.477884
C 1.601175 1.195174 0.471685
H 1.913684 1.505657 1.477539
H 1.621983 2.041015 -0.217251
C -3.322812 0.249728 -0.096359
H -3.46028 1.255004 -0.501347
H -4.007329 -0.461968 -0.569008
H -3.519556 0.269895 0.980524
O -1.477617 -1.365419 0.44484
C -0.609352 -2.284143 -0.318757
H 0.412529 -1.898403 -0.460205
H -0.566304 -3.201599 0.278006
H -1.050449 -2.516532 -1.30227
C 2.526722 -0.010123 -0.048664
O 2.23743 -1.11367 0.561034
O 3.413926 0.246091 -0.898212
21
G: 25 x 25 i: 1 j: 21 E: 0.32763373272973695
C -1.871304 -0.170293 -0.275442
H -1.79358 -0.377388 -1.35535
H 0.329762 -0.359312 0.912673
C -0.878593 1.002283 -0.036277
O -1.174338 2.158081 -0.419197
N 0.235926 0.607203 0.592493
C 1.576537 1.201097 0.515055
H 1.92681 1.528097 1.502427
H 1.568876 2.034223 -0.189102
C -3.29998 0.252691 0.076658
H -3.461441 1.259394 -0.316972
H -4.033964 -0.44933 -0.331822
H -3.394475 0.270525 1.167433
O -1.432704 -1.396619 0.391484
C -0.552221 -2.245997 -0.443906
H 0.472886 -1.850146 -0.518604
H -0.530145 -3.217944 0.060471
H -0.978404 -2.373793 -1.452487
C 2.47891 -0.010688 -0.018146
O 2.215821 -1.105751 0.617665
O 3.331483 0.233126 -0.906674
21
G: 25 x 25 i: 0 j: 21 E: 0.2509150367059192
C -1.846636 -0.100927 -0.329811
H -1.852265 -0.237211 -1.423546
H 0.287187 -0.381955 0.939706
C -0.812781 1.021967 -0.055596
O -1.00201 2.16521 -0.530165
N 0.24826 0.595064 0.643061
C 1.611131 1.143774 0.584846
H 1.880411 1.35132 1.62801
H 1.720334 2.037002 -0.031206
C -3.230159 0.373648 0.128204
H -3.377339 1.390478 -0.245441
H -4.017243 -0.292741 -0.238229
H -3.249631 0.379544 1.222684
O -1.574768 -1.361721 0.348857
C -0.643167 -2.25104 -0.387071
H 0.408864 -1.966736 -0.234165
H -0.816321 -3.250995 0.023647
H -0.883268 -2.257865 -1.461835
C 2.493192 -0.068085 0.030124
O 2.001381 -1.209208 0.395294
O 3.416894 0.199181 -0.777139
21
G: 25 x 25 i: 0 j: 22 E: 0.137160378128101
C -1.853304 -0.03735 -0.376963
H -1.857624 -0.103362 -1.477952
H 0.37768 -0.47328 0.761588
C -0.806708 1.042034 0.003313
O -0.960803 2.220944 -0.39402
N 0.295502 0.532466 0.566215
C 1.647397 1.090406 0.493822
H 2.00528 1.423005 1.477849
H 1.671063 1.926823 -0.207442
C -3.220569 0.468884 0.097525
H -3.323598 1.508839 -0.223433
H -4.030457 -0.145983 -0.307992
H -3.248375 0.418243 1.190888
O -1.779987 -1.311248 0.326108
C -0.882692 -2.298848 -0.317875
H 0.173364 -2.119078 -0.068834
H -1.190726 -3.271016 0.081558
H -1.025198 -2.29761 -1.410994
C 2.557136 -0.118491 -0.026836
O 2.108468 -1.271578 0.352404
O 3.598886 0.177675 -0.661574
21
G: 25 x 25 i: 1 j: 22 E: 0.20986645439188578
C -1.815887 -0.016906 -0.386567
H -1.674782 -0.140423 -1.473344
H 0.451791 -0.502741 0.679166
C -0.791339 1.052229 0.087094
O -0.969006 2.262571 -0.188797
N 0.350653 0.508139 0.519121
C 1.69813 1.071215 0.459562
H 2.057941 1.394369 1.446361
H 1.733669 1.912071 -0.236159
C -3.220269 0.531597 -0.118049
H -3.24567 1.572825 -0.448703
H -3.982522 -0.061994 -0.632831
H -3.405441 0.488856 0.960288
O -1.860696 -1.259337 0.382896
C -1.045959 -2.349149 -0.196608
H 0.030099 -2.214346 -0.012431
H -1.386707 -3.261078 0.305339
H -1.233818 -2.443343 -1.279098
C 2.600246 -0.144358 -0.068252
O 2.139855 -1.29542 0.303289
O 3.646264 0.146069 -0.698076
21
G: 25 x 25 i: 2 j: 22 E: 0.3131510655148304
C -1.810727 0.005025 -0.402517
H -1.590096 -0.181997 -1.465893
H 0.532081 -0.540871 0.47986
C -0.777718 1.048332 0.122362
O -0.986494 2.279901 0.014714
N 0.404403 0.476055 0.363809
C 1.744947 1.049291 0.400262
H 2.043997 1.362163 1.411016
H 1.838068 1.894569 -0.285242
C -3.210073 0.605274 -0.259053
H -3.179662 1.641733 -0.602481
H -3.949176 0.024796 -0.82042
H -3.478531 0.590127 0.80224
O -1.959457 -1.19838 0.426302
C -1.239472 -2.375659 -0.092344
H -0.150321 -2.311168 0.046469
H -1.622892 -3.225414 0.482854
H -1.463239 -2.536518 -1.160325
C 2.671416 -0.171754 -0.080627
O 2.178057 -1.320823 0.253974
O 3.757733 0.112694 -0.640396
21
G: 25 x 25 i: 3 j: 22 E: 0.37723926525177376
C -1.925711 -0.00726 -0.452925
H -1.843161 -0.256886 -1.526443
H 0.633536 -0.525766 -0.428209
C -0.785287 0.980997 -0.057286
O -1.039364 2.166778 0.256317
N 0.442407 0.460274 -0.198503
C 1.700371 0.98775 0.333216
H 1.644602 1.122154 1.422877
H 1.992722 1.932894 -0.131049
C -3.261437 0.673268 -0.168794
H -3.287344 1.653003 -0.649321
H -4.08663 0.04404 -0.515163
H -3.345403 0.819349 0.91142
O -2.085302 -1.17837 0.418261
C -1.238157 -2.339951 0.137612
H -0.232432 -2.268592 0.572632
H -1.763791 -3.195714 0.577868
H -1.138183 -2.512682 -0.948309
C 2.771833 -0.142199 -0.027598
O 2.256845 -1.329266 -0.05168
O 3.962765 0.22219 -0.183164
21
G: 25 x 25 i: 4 j: 22 E: 0.29308135434621363
C -1.907386 -0.023847 -0.496784
H -1.747439 -0.343913 -1.541354
H 0.659854 -0.416007 -0.731603
C -0.781599 0.947998 -0.049031
O -1.051385 2.03507 0.509414
N 0.46005 0.522405 -0.354391
C 1.687861 0.970653 0.313847
H 1.535818 1.021668 1.400731
H 2.033601 1.94373 -0.044474
C -3.249603 0.680546 -0.343172
H -3.312077 1.530884 -1.028429
H -4.060433 -0.026304 -0.53996
H -3.318778 1.061398 0.677814
O -2.134453 -1.133228 0.442206
C -1.227625 -2.278985 0.317566
H -0.204463 -2.089142 0.667694
H -1.686102 -3.068827 0.92378
H -1.170875 -2.628271 -0.729262
C 2.770484 -0.141004 -0.047879
O 2.249992 -1.315348 -0.210464
O 3.973067 0.216731 -0.083842
21
G: 25 x 25 i: 5 j: 22 E: 0.22841796010834514
C -1.868126 -0.020219 -0.536995
H -1.623124 -0.389729 -1.545727
H 0.678482 -0.322169 -0.871338
C -0.757561 0.913769 0.003624
O -1.027503 1.888758 0.738927
N 0.482364 0.590569 -0.428094
C 1.706513 0.968471 0.296376
H 1.511731 0.985187 1.376827
H 2.095138 1.942624 -0.011712
C -3.195103 0.72756 -0.520281
H -3.210587 1.499755 -1.296749
H -4.016343 0.022571 -0.674511
H -3.284114 1.214779 0.453323
O -2.207218 -1.068529 0.44236
C -1.300674 -2.225342 0.432887
H -0.257662 -1.994077 0.688592
H -1.720764 -2.919446 1.169394
H -1.300577 -2.715731 -0.55683
C 2.764935 -0.161663 -0.07087
O 2.212352 -1.31153 -0.295387
O 3.97879 0.157151 -0.056282
21
G: 25 x 25 i: 6 j: 22 E: 0.22721725723386044
C -1.823261 -0.004663 -0.570297
H -1.518709 -0.398278 -1.551401
H 0.699735 -0.220816 -0.966651
C -0.718011 0.864525 0.071063
O -0.98331 1.710802 0.950783
N 0.50966 0.670935 -0.474456
C 1.739929 0.975777 0.283268
H 1.516257 0.976775 1.357493
H 2.176853 1.938482 0.0058
C -3.103294 0.818835 -0.65647
H -3.019836 1.587517 -1.432401
H -3.951473 0.161903 -0.867413
H -3.229956 1.30714 0.313155
O -2.304304 -1.005394 0.399872
C -1.415745 -2.177398 0.495949
H -0.357727 -1.935282 0.67215
H -1.808531 -2.770576 1.328815
H -1.465362 -2.779931 -0.427247
C 2.754767 -0.192119 -0.087499
O 2.1545 -1.31048 -0.347989
O 3.981218 0.07092 -0.043565
21
G: 25 x 25 i: 7 j: 22 E: 0.2956067624345451
C -1.776628 0.023098 -0.595149
H -1.435449 -0.374415 -1.561492
H 0.714281 -0.078621 -1.061835
C -0.666939 0.798995 0.146658
O -0.919145 1.485348 1.157049
N 0.536025 0.769683 -0.494091
C 1.779708 0.98483 0.282768
H 1.536213 0.970905 1.351672
H 2.270752 1.928678 0.033007
C -2.981545 0.948757 -0.747455
H -2.77787 1.741821 -1.474891
H -3.856424 0.369716 -1.056306
H -3.153021 1.395497 0.235727
O -2.406076 -0.939126 0.322569
C -1.557088 -2.13516 0.506504
H -0.484213 -1.910711 0.61303
H -1.929062 -2.631272 1.409025
H -1.663975 -2.819354 -0.351247
C 2.735253 -0.228875 -0.102115
O 2.080503 -1.307457 -0.393332
O 3.973472 -0.030002 -0.039451
21
G: 25 x 25 i: 8 j: 22 E: 0.4144214346379158
C -1.734531 0.078261 -0.609843
H -1.386862 -0.276644 -1.590622
H 0.694607 0.20523 -1.213275
C -0.603481 0.713731 0.225457
O -0.816081 1.15814 1.368792
N 0.551215 0.915581 -0.482717
C 1.822942 1.006257 0.280454
H 1.573154 0.99081 1.346501
H 2.383059 1.913891 0.042362
C -2.847539 1.120036 -0.74295
H -2.529335 1.957075 -1.373142
H -3.744578 0.652728 -1.159854
H -3.052979 1.479821 0.269241
O -2.484961 -0.874991 0.20899
C -1.687119 -2.105008 0.426521
H -0.600325 -1.918484 0.463988
H -2.028619 -2.533474 1.374319
H -1.871902 -2.82649 -0.385031
C 2.688427 -0.27149 -0.11802
O 1.971801 -1.301916 -0.41753
O 3.938376 -0.144265 -0.055899
21
G: 25 x 25 i: 9 j: 22 E: 0.5131716474734276
C -1.697502 0.194479 -0.588459
H -1.399115 -0.024845 -1.625833
H 0.605575 0.790436 -1.385959
C -0.492927 0.603592 0.285843
O -0.585622 0.667618 1.523357
N 0.558518 1.128737 -0.424322
C 1.888909 1.06805 0.224421
H 1.70849 1.124238 1.30138
H 2.53359 1.887862 -0.101077
C -2.704166 1.349502 -0.528923
H -2.294387 2.248644 -1.00035
H -3.637884 1.055677 -1.018293
H -2.891983 1.541561 0.531464
O -2.52159 -0.801288 0.077268
C -1.807335 -2.096709 0.165743
H -0.715495 -1.970082 0.255727
H -2.207537 -2.609655 1.046228
H -2.011248 -2.703139 -0.731657
C 2.574503 -0.330373 -0.1307
O 1.749774 -1.294638 -0.30838
O 3.836373 -0.318329 -0.150862
21
G: 25 x 25 i: 10 j: 22 E: 0.5208371251192148
C -1.474922 0.239732 -0.597215
H -0.902117 -0.067845 -1.482746
H 0.663611 1.351969 -0.954568
C -0.45751 0.56897 0.513364
O -0.636948 0.270924 1.706754
N 0.620057 1.313547 0.064671
C 1.934648 0.869172 0.601429
H 1.754073 0.543541 1.629332
H 2.677888 1.669731 0.578357
C -2.349597 1.467163 -0.870462
H -1.737676 2.314996 -1.195687
H -3.094325 1.227924 -1.636775
H -2.868869 1.725517 0.05751
O -2.511872 -0.685868 -0.180921
C -1.943061 -1.96075 0.322938
H -0.921826 -2.111519 -0.05659
H -1.898217 -1.928573 1.415007
H -2.61457 -2.760014 -0.014385
C 2.421544 -0.366372 -0.285674
O 1.456736 -1.072328 -0.761777
O 3.668962 -0.521233 -0.376362
21
G: 25 x 25 i: 11 j: 22 E: 0.5271321007730876
C -1.410283 0.293477 -0.568907
H -0.850067 -0.063107 -1.443313
H 0.666126 1.550158 -0.743321
C -0.386186 0.44374 0.567641
O -0.531078 -0.048476 1.69768
N 0.650217 1.320296 0.252619
C 1.983159 0.79609 0.664738
H 1.862437 0.407676 1.679176
H 2.74798 1.57589 0.640594
C -2.105241 1.636896 -0.826582
H -1.380117 2.417074 -1.078195
H -2.828605 1.527236 -1.641422
H -2.642972 1.922057 0.082821
O -2.578811 -0.483013 -0.196006
C -2.204539 -1.870998 0.170691
H -1.190084 -2.105916 -0.179733
H -2.216233 -1.973153 1.258345
H -2.942498 -2.539784 -0.29131
C 2.369368 -0.400068 -0.320747
O 1.351033 -1.048378 -0.769942
O 3.601962 -0.589511 -0.503353
21
G: 25 x 25 i: 12 j: 22 E: 0.6279750877001788
C -1.369592 0.333951 -0.548709
H -0.861259 -0.056021 -1.439856
H 0.68854 1.660995 -0.472983
C -0.335842 0.286049 0.585972
O -0.474604 -0.391562 1.616372
N 0.668102 1.253239 0.464877
C 2.009725 0.675491 0.774925
H 1.914405 0.162412 1.734955
H 2.776592 1.451747 0.827245
C -1.891812 1.765277 -0.752421
H -1.091077 2.4638 -1.010682
H -2.641607 1.761929 -1.550449
H -2.371482 2.093002 0.174703
O -2.640515 -0.27406 -0.184906
C -2.476099 -1.730077 0.033838
H -1.501651 -2.071168 -0.342282
H -2.510638 -1.945933 1.103374
H -3.291929 -2.241682 -0.494907
C 2.363329 -0.393587 -0.360459
O 1.327551 -0.976976 -0.858082
O 3.58946 -0.5667 -0.596151
21
G: 25 x 25 i: 13 j: 22 E: 0.6838508607161202
C -1.365533 0.497135 -0.320485
H -0.936075 0.348124 -1.324492
H 0.750866 1.440239 0.512489
C -0.375674 -0.216925 0.616141
O -0.554576 -1.380517 1.027656
N 0.67895 0.571106 1.03903
C 1.998928 -0.117129 1.027716
H 1.823862 -1.140991 1.366269
H 2.719748 0.386029 1.676527
C -1.520876 1.994518 -0.008242
H -0.610706 2.559519 -0.226714
H -2.332132 2.384765 -0.630001
H -1.789407 2.125128 1.044136
O -2.766009 0.127942 -0.11424
C -3.076237 -1.210326 -0.627555
H -2.876064 -1.281762 -1.709834
H -2.485424 -1.961085 -0.102322
H -4.148341 -1.356823 -0.450813
C 2.514682 -0.124085 -0.490999
O 1.562667 -0.16121 -1.348457
O 3.767828 -0.141216 -0.640948
21
G: 25 x 25 i: 14 j: 22 E: 0.7072565530579595
C -1.303592 0.543365 -0.071156
H -1.020555 0.723034 -1.120659
H 0.743703 0.53484 1.370233
C -0.453466 -0.684465 0.310384
O -0.747787 -1.824124 -0.11252
N 0.642591 -0.443339 1.113733
C 1.938078 -0.948865 0.582927
H 1.718108 -1.860499 0.02103
H 2.653728 -1.158355 1.381632
C -0.962597 1.824749 0.691249
H 0.021517 2.14845 0.337466
H -1.712593 2.580164 0.438316
H -0.973505 1.668847 1.77595
O -2.739505 0.413508 0.200535
C -3.4128 -0.449032 -0.771643
H -3.341046 -0.035253 -1.793276
H -2.973879 -1.447654 -0.767647
H -4.467095 -0.476408 -0.472043
C 2.510404 0.189832 -0.391253
O 1.591653 0.876655 -0.969799
O 3.765304 0.230549 -0.501988
21
G: 25 x 25 i: 15 j: 22 E: 0.6818903067996871
C -1.316602 0.557128 -0.150976
H -1.169822 0.691999 -1.232699
H 0.652989 0.504965 1.447952
C -0.419707 -0.649364 0.190084
O -0.645832 -1.767466 -0.323867
N 0.586827 -0.454012 1.116795
C 1.92158 -0.933367 0.671941
H 1.76053 -1.878556 0.147484
H 2.60416 -1.072859 1.513466
C -0.912583 1.865162 0.52218
H 0.079767 2.114962 0.133646
H -1.634111 2.63951 0.243841
H -0.914387 1.770027 1.614527
O -2.715651 0.423588 0.289816
C -3.471577 -0.503999 -0.552453
H -3.564533 -0.124285 -1.585752
H -2.985206 -1.480652 -0.587701
H -4.470717 -0.572546 -0.106545
C 2.496236 0.168319 -0.340862
O 1.577714 0.782714 -0.997218
O 3.752451 0.256446 -0.39939
21
G: 25 x 25 i: 16 j: 22 E: 0.3939717979483248
C -1.813133 0.52165 -0.488388
H -2.488366 0.406877 -1.351781
H 0.893601 0.88688 -0.270439
C -0.688091 -0.533171 -0.628373
O -0.985896 -1.749393 -0.792372
N 0.54869 -0.094084 -0.384942
C 1.762626 -0.913576 -0.361557
H 2.07157 -1.20546 -1.375956
H 1.63302 -1.811665 0.246351
C -1.313597 1.960333 -0.384349
H -0.751186 2.246528 -1.277847
H -2.170763 2.628453 -0.256863
H -0.665347 2.051311 0.491253
O -2.486281 0.449402 0.824352
C -3.356089 -0.723581 0.942481
H -4.233595 -0.640553 0.276035
H -2.808927 -1.63352 0.686129
H -3.696469 -0.739783 1.983258
C 2.856603 0.059326 0.280329
O 2.615567 1.296083 -0.00411
O 3.817326 -0.465638 0.895081
21
G: 25 x 25 i: 17 j: 22 E: 0.40683916944362863
C -1.876314 0.474777 -0.4854
H -2.665041 0.258896 -1.221451
H 0.812984 0.90925 -0.219736
C -0.715779 -0.510679 -0.751404
O -0.977062 -1.715125 -1.02712
N 0.501568 -0.066048 -0.432902
C 1.737318 -0.8518 -0.451946
H 2.081756 -1.038538 -1.479637
H 1.616857 -1.806447 0.065068
C -1.470495 1.945187 -0.525812
H -1.021759 2.200063 -1.490411
H -2.349991 2.571565 -0.347325
H -0.744139 2.134728 0.269012
O -2.314791 0.429757 0.926006
C -3.027602 -0.811083 1.23814
H -4.02538 -0.83048 0.765131
H -2.466484 -1.68281 0.889523
H -3.143836 -0.826531 2.3266
C 2.787024 0.083121 0.309689
O 2.519755 1.334682 0.137112
O 3.745741 -0.474877 0.898244
21
G: 25 x 25 i: 18 j: 22 E: 0.4426445782191877
C -1.9557 0.365041 -0.444638
H -2.822187 -0.007296 -1.009228
H 0.696072 0.920182 -0.170204
C -0.753343 -0.527079 -0.827536
O -0.95482 -1.720651 -1.182353
N 0.442636 -0.042879 -0.484671
C 1.716869 -0.75976 -0.563154
H 2.080271 -0.827668 -1.599037
H 1.638505 -1.76564 -0.144032
C -1.722658 1.852594 -0.696708
H -1.462571 2.033613 -1.743855
H -2.624069 2.415748 -0.434759
H -0.905507 2.198708 -0.058428
O -2.136049 0.435701 1.019327
C -2.585914 -0.846761 1.56285
H -3.646253 -1.035727 1.321282
H -1.996272 -1.679501 1.164382
H -2.467976 -0.777026 2.648538
C 2.713859 0.144254 0.300411
O 2.388745 1.392216 0.249958
O 3.693731 -0.425387 0.841903
21
G: 25 x 25 i: 19 j: 22 E: 0.2848751862493373
C -2.050079 -0.052112 0.238565
H -2.72536 -0.381953 1.041341
H 0.157842 0.220991 -1.036841
C -0.834835 -1.004656 0.304167
O -0.726541 -1.853334 1.215774
N 0.098533 -0.742475 -0.645156
C 1.503411 -1.167705 -0.491382
H 1.866649 -1.641604 -1.411772
H 1.583566 -1.857354 0.349775
C -2.75253 -0.153346 -1.117997
H -3.128012 -1.168655 -1.283477
H -3.585209 0.557353 -1.146722
H -2.04484 0.101382 -1.909653
O -1.756868 1.385937 0.246467
C -0.481188 1.756927 0.891235
H -0.307626 1.180339 1.811394
H 0.363698 1.617467 0.205567
H -0.584837 2.816378 1.149159
C 2.32267 0.169209 -0.206609
O 1.780417 1.197596 -0.78323
O 3.386707 0.077686 0.45092
21
G: 25 x 25 i: 20 j: 22 E: 0.18686784454439476
C -2.012808 -0.008548 0.296573
H -2.573995 -0.202601 1.223851
H 0.141849 0.300899 -0.976432
C -0.819258 -0.989313 0.302969
O -0.73178 -1.906128 1.146856
N 0.098948 -0.683111 -0.64877
C 1.49727 -1.143587 -0.555297
H 1.834757 -1.548311 -1.517826
H 1.573718 -1.904079 0.223106
C -2.891592 -0.282449 -0.928188
H -3.295196 -1.299411 -0.888123
H -3.71204 0.442231 -0.958218
H -2.280527 -0.170883 -1.826684
O -1.693895 1.390151 0.031177
C -0.531518 1.896237 0.793688
H -0.474692 1.437307 1.792097
H 0.395537 1.712419 0.235631
H -0.69609 2.973315 0.906597
C 2.359399 0.139898 -0.172815
O 1.843602 1.231151 -0.645214
O 3.430207 -0.044242 0.455407
21
G: 25 x 25 i: 21 j: 22 E: 0.11572824675204174
C -1.97883 0.024271 0.336715
H -2.431874 -0.083394 1.33464
H 0.166312 0.371117 -0.911513
C -0.82464 -0.999263 0.254799
O -0.800263 -2.008632 0.991199
N 0.125762 -0.622881 -0.631565
C 1.509652 -1.121638 -0.570447
H 1.836115 -1.486371 -1.55307
H 1.569517 -1.924622 0.166093
C -3.00003 -0.325952 -0.753465
H -3.38249 -1.339403 -0.596714
H -3.824279 0.394652 -0.73536
H -2.495253 -0.272378 -1.721722
O -1.669646 1.381388 -0.086553
C -0.578139 2.01187 0.693093
H -0.581428 1.659636 1.735899
H 0.391397 1.810467 0.217999
H -0.78655 3.087129 0.680325
C 2.40829 0.117721 -0.127877
O 1.924004 1.246763 -0.537622
O 3.475951 -0.131859 0.48391
21
G: 25 x 25 i: 22 j: 22 E: 0.09160983350921015
C -1.9382 0.042836 0.360839
H -2.256939 0.000598 1.414456
H 0.224962 0.416915 -0.860038
C -0.823214 -1.012489 0.181857
O -0.873355 -2.096279 0.804622
N 0.176786 -0.581534 -0.610966
C 1.54701 -1.10938 -0.556057
H 1.877554 -1.454963 -1.544627
H 1.58882 -1.933451 0.15847
C -3.101593 -0.37145 -0.550968
H -3.403641 -1.394193 -0.306388
H -3.944773 0.31595 -0.427164
H -2.753101 -0.32983 -1.587287
O -1.684052 1.367611 -0.179705
C -0.654107 2.127158 0.570659
H -0.707958 1.901838 1.647258
H 0.349347 1.913973 0.176456
H -0.89771 3.183556 0.415085
C 2.463048 0.105331 -0.076402
O 2.001579 1.25245 -0.45941
O 3.521862 -0.178993 0.535864
21
G: 25 x 25 i: 23 j: 22 E: 0.0995215470848052
C -1.894707 0.047391 0.370546
H -2.057054 0.061244 1.460855
H 0.301653 0.447835 -0.815185
C -0.816067 -1.026528 0.090963
O -0.930676 -2.164913 0.600505
N 0.237536 -0.554173 -0.592508
C 1.597009 -1.101304 -0.528107
H 1.941457 -1.438124 -1.515217
H 1.62477 -1.934603 0.176527
C -3.180675 -0.420606 -0.323686
H -3.374059 -1.454828 -0.02511
H -4.024057 0.223641 -0.054911
H -3.025255 -0.373333 -1.406221
O -1.722968 1.346176 -0.259613
C -0.756415 2.225896 0.441454
H -0.856971 2.121324 1.533745
H 0.275959 2.019231 0.124661
H -1.03183 3.246046 0.153554
C 2.514002 0.10505 -0.02241
O 2.064492 1.258423 -0.399908
O 3.562121 -0.192013 0.601803
21
G: 25 x 25 i: 24 j: 22 E: 0.13715942573071516
C -1.903645 0.095267 0.295035
H -1.992402 0.223826 1.386605
H 0.366449 0.392139 -0.818046
C -0.841706 -1.015617 0.092276
O -1.057823 -2.160621 0.554007
N 0.265565 -0.587323 -0.524966
C 1.606321 -1.164107 -0.407739
H 1.85905 -1.551194 -1.404393
H 1.717963 -1.956767 0.334407
C -3.244486 -0.394143 -0.264515
H -3.407272 -1.41319 0.095993
H -4.063276 0.26339 0.043915
H -3.183082 -0.397481 -1.357428
O -1.605025 1.364024 -0.353956
C -0.719601 2.247653 0.438896
H -1.01891 2.24676 1.499177
H 0.337991 1.965643 0.339008
H -0.869649 3.250781 0.026986
C 2.554267 0.079556 -0.072099
O 1.977592 1.214406 -0.315834
O 3.646167 -0.168346 0.495461
21
G: 25 x 25 i: 24 j: 23 E: 0.07198513751973223
C -1.987484 0.122364 0.173777
H -2.227022 0.275741 1.239684
H 0.392736 0.368817 -0.764333
C -0.885541 -0.968538 0.18467
O -1.149394 -2.097555 0.66249
N 0.253035 -0.588204 -0.405316
C 1.573124 -1.177804 -0.201413
H 1.880137 -1.824519 -1.034852
H 1.595272 -1.761571 0.723212
C -3.229774 -0.39384 -0.562296
H -3.431872 -1.408593 -0.209508
H -4.090905 0.258828 -0.386193
H -3.012734 -0.415016 -1.635244
O -1.511421 1.408645 -0.315625
C -0.759693 2.188393 0.693509
H -1.26643 2.148993 1.671999
H 0.280022 1.844647 0.784571
H -0.769831 3.220214 0.327137
C 2.578896 0.064074 -0.10609
O 2.069667 1.172507 -0.537383
O 3.733925 -0.183348 0.318992
21
G: 25 x 25 i: 23 j: 23 E: 0.03251029912280501
C -2.010075 0.099856 0.136848
H -2.402313 0.201316 1.162291
H 0.3457 0.327864 -0.843093
C -0.866594 -0.934045 0.267301
O -1.074606 -2.007823 0.87863
N 0.22921 -0.613684 -0.435985
C 1.562714 -1.169803 -0.207299
H 1.879391 -1.840104 -1.017917
H 1.583231 -1.722685 0.735927
C -3.106969 -0.452245 -0.783649
H -3.349976 -1.467236 -0.456771
H -3.995725 0.186472 -0.755021
H -2.718149 -0.478312 -1.806538
O -1.548053 1.421086 -0.254126
C -0.799952 2.126822 0.812626
H -1.269282 1.957149 1.795286
H 0.255742 1.823254 0.825971
H -0.871108 3.190249 0.561718
C 2.552548 0.083726 -0.147881
O 2.032707 1.17192 -0.616884
O 3.70845 -0.136189 0.290175
21
G: 25 x 25 i: 22 j: 23 E: 0.020314178356784396
C -2.033142 0.057923 0.09295
H -2.570922 0.09016 1.053907
H 0.304132 0.274928 -0.907545
C -0.847696 -0.899967 0.346492
O -0.985337 -1.894785 1.09342
N 0.207162 -0.648222 -0.450793
C 1.556578 -1.158926 -0.194137
H 1.887233 -1.858877 -0.973213
H 1.581661 -1.667614 0.773353
C -2.941676 -0.510107 -1.006541
H -3.237125 -1.529105 -0.739301
H -3.825848 0.123226 -1.133001
H -2.374242 -0.525865 -1.94182
O -1.611292 1.418431 -0.193481
C -0.86152 2.049587 0.918341
H -1.268083 1.737052 1.893165
H 0.208672 1.814665 0.844377
H -1.011917 3.127605 0.798532
C 2.520466 0.113188 -0.18708
O 1.979902 1.169022 -0.705404
O 3.679008 -0.06252 0.263832
21
G: 25 x 25 i: 21 j: 23 E: 0.037686777524868376
C -2.050748 0.001395 0.036654
H -2.703381 -0.052253 0.92201
H 0.284614 0.198812 -0.96844
C -0.828359 -0.864877 0.410689
O -0.900506 -1.748718 1.292312
N 0.196246 -0.700031 -0.45565
C 1.561153 -1.150268 -0.154583
H 1.91709 -1.888453 -0.885239
H 1.588588 -1.593763 0.844142
C -2.76066 -0.562105 -1.201324
H -3.073755 -1.594601 -1.01706
H -3.63028 0.057292 -1.444524
H -2.055753 -0.538019 -2.03655
O -1.70289 1.403382 -0.137518
C -0.929744 1.964394 0.993986
H -1.243965 1.517447 1.949753
H 0.144751 1.815491 0.826047
H -1.160236 3.035005 1.009171
C 2.487161 0.146169 -0.218802
O 1.918731 1.149629 -0.8088
O 3.645387 0.037583 0.252822
21
G: 25 x 25 i: 20 j: 23 E: 0.09937882330814318
C -2.05987 -0.065301 -0.025934
H -2.788678 -0.22369 0.783926
H 0.299295 0.089298 -1.026622
C -0.808455 -0.829658 0.458003
O -0.838651 -1.571198 1.463892
N 0.205396 -0.769897 -0.440688
C 1.580826 -1.142631 -0.074543
H 1.973234 -1.931673 -0.728718
H 1.602644 -1.488288 0.961914
C -2.58927 -0.605645 -1.358102
H -2.859147 -1.662391 -1.261535
H -3.465313 -0.024907 -1.665599
H -1.805355 -0.499571 -2.111326
O -1.832528 1.375531 -0.079944
C -0.990296 1.8896 1.020917
H -1.180419 1.348032 1.959864
H 0.069684 1.822526 0.74556
H -1.278713 2.938369 1.150651
C 2.460604 0.175721 -0.24361
O 1.86308 1.095581 -0.935644
O 3.61232 0.161218 0.253735
21
G: 25 x 25 i: 19 j: 23 E: 0.18714488377372618
C -2.067195 -0.137148 -0.096741
H -2.853391 -0.452522 0.604226
H 0.348055 -0.028923 -1.068175
C -0.805217 -0.824486 0.469393
O -0.83602 -1.443443 1.556209
N 0.233897 -0.830313 -0.401689
C 1.606659 -1.118747 0.045243
H 2.041564 -1.963923 -0.502891
H 1.607092 -1.340008 1.115194
C -2.407115 -0.559133 -1.528246
H -2.574399 -1.640114 -1.582812
H -3.3077 -0.029473 -1.856531
H -1.57976 -0.289847 -2.188006
O -2.011032 1.323132 0.050794
C -1.023425 1.80807 1.035165
H -1.023755 1.193509 1.94727
H -0.015556 1.828277 0.602404
H -1.343653 2.824293 1.289438
C 2.446844 0.203029 -0.255721
O 1.834139 1.010094 -1.068266
O 3.583028 0.295393 0.265905
21
G: 25 x 25 i: 18 j: 23 E: 0.23602942313300446
C -2.061128 -0.137045 -0.250307
H -2.919114 -0.739815 0.067643
H 0.418395 0.14369 -1.068048
C -0.841209 -0.977795 0.190403
O -0.948533 -1.84216 1.089999
N 0.271367 -0.751105 -0.54279
C 1.618517 -1.088235 -0.066511
H 2.101755 -1.848175 -0.693716
H 1.574289 -1.446625 0.965179
C -2.123784 0.16072 -1.752686
H -2.087933 -0.764006 -2.338558
H -3.050211 0.701591 -1.972487
H -1.282758 0.797398 -2.039124
O -2.220157 1.065508 0.594615
C -1.049261 1.428564 1.4124
H -0.775971 0.615812 2.100643
H -0.164201 1.694865 0.821537
H -1.382049 2.29294 1.996878
C 2.439906 0.280431 -0.158906
O 1.842545 1.170925 -0.894723
O 3.547393 0.332005 0.424262
21
G: 25 x 25 i: 17 j: 23 E: 0.2331559268586716
C -2.00565 -0.011833 -0.402491
H -2.891741 -0.638049 -0.545361
H 0.469091 0.392368 -1.058578
C -0.834642 -1.008669 -0.215764
O -1.003469 -2.085392 0.398948
N 0.312334 -0.613202 -0.813952
C 1.639241 -1.043583 -0.356398
H 2.198045 -1.577128 -1.135366
H 1.545529 -1.682298 0.525711
C -1.843102 1.00068 -1.542935
H -1.605179 0.497992 -2.486048
H -2.772367 1.569732 -1.650982
H -1.040607 1.706445 -1.304958
O -2.33712 0.584505 0.908468
C -1.15751 0.827645 1.760012
H -0.756631 -0.120279 2.144587
H -0.339865 1.357985 1.254329
H -1.532584 1.426763 2.596274
C 2.396328 0.321391 0.00708
O 1.801897 1.368695 -0.487155
O 3.460189 0.237829 0.662368
21
G: 25 x 25 i: 16 j: 23 E: 0.2540566196585132
C -1.934661 0.116421 -0.487125
H -2.78847 -0.408334 -0.929403
H 0.512236 0.584323 -1.080293
C -0.769182 -0.908962 -0.477126
O -0.939803 -2.057597 -0.013823
N 0.370997 -0.450347 -1.055593
C 1.690992 -0.93102 -0.609616
H 2.328348 -1.228359 -1.450555
H 1.566313 -1.771776 0.076486
C -1.66735 1.446594 -1.201409
H -1.366516 1.279051 -2.2411
H -2.581587 2.048486 -1.17638
H -0.872996 1.999508 -0.687645
O -2.427965 0.23026 0.898592
C -1.319846 0.283089 1.875261
H -0.917767 -0.723833 2.042698
H -0.490001 0.931043 1.558517
H -1.762515 0.664062 2.801442
C 2.340604 0.323075 0.149376
O 1.725268 1.440889 -0.10918
O 3.35908 0.111832 0.846813
21
G: 25 x 25 i: 15 j: 23 E: 0.31718349517359457
C -1.862963 0.223975 -0.537495
H -2.642698 -0.162951 -1.205053
H 0.554069 0.765678 -1.106496
C -0.675931 -0.774739 -0.641843
O -0.817949 -1.964306 -0.289936
N 0.444862 -0.260021 -1.229167
C 1.7644 -0.77029 -0.790652
H 2.465701 -0.847923 -1.628725
H 1.635683 -1.74397 -0.315089
C -1.552049 1.692349 -0.854545
H -1.226937 1.803264 -1.895255
H -2.46244 2.279014 -0.695356
H -0.760195 2.065112 -0.195304
O -2.525643 -0.039224 0.748554
C -1.53778 -0.144796 1.846419
H -1.141178 -1.164595 1.890874
H -0.687019 0.542286 1.721387
H -2.080707 0.092236 2.767567
C 2.29509 0.298289 0.279584
O 1.647337 1.424165 0.242419
O 3.277139 -0.040228 0.981063
21
G: 25 x 25 i: 14 j: 23 E: 0.4035041134629864
C -1.796758 -0.470225 0.439688
H -2.489994 -0.522009 1.289968
H 0.505152 -1.371454 0.956171
C -0.556334 0.3335 0.925328
O -0.601353 1.57354 1.03665
N 0.515351 -0.423817 1.334281
C 1.860542 0.142506 1.060542
H 2.611532 -0.327536 1.704501
H 1.825765 1.2163 1.244083
C -1.489487 -1.876572 -0.103334
H -1.219867 -2.560078 0.712506
H -2.391219 -2.254801 -0.594425
H -0.657911 -1.814177 -0.815938
O -2.576754 0.417579 -0.422665
C -1.73609 1.064116 -1.459687
H -1.355561 2.016072 -1.079269
H -0.87031 0.448611 -1.745796
H -2.38963 1.227238 -2.324126
C 2.208997 -0.106859 -0.480875
O 1.463753 -0.978683 -1.074004
O 3.199275 0.536284 -0.912183
21
G: 25 x 25 i: 13 j: 23 E: 0.44985709495449555
C -1.731975 -0.706 0.060361
H -2.310458 -1.41384 0.670572
H 0.478454 -1.934033 -0.056801
C -0.433764 -0.374086 0.845794
O -0.367177 0.588888 1.62799
N 0.585191 -1.29693 0.728902
C 1.950647 -0.715176 0.75472
H 2.69047 -1.519956 0.685994
H 2.085804 -0.166163 1.686406
C -1.453977 -1.289396 -1.34309
H -1.198315 -2.356694 -1.283065
H -2.366124 -1.188448 -1.939055
H -0.618836 -0.730423 -1.78466
O -2.617041 0.445775 0.159013
C -1.964845 1.712961 -0.25908
H -1.681757 2.279355 0.631482
H -1.052609 1.542854 -0.848083
H -2.704598 2.266858 -0.850687
C 2.140081 0.318836 -0.450481
O 1.260658 0.252982 -1.389798
O 3.166639 1.039377 -0.355176
21
G: 25 x 25 i: 12 j: 23 E: 0.5188435637792281
C -1.674973 -0.749156 0.059104
H -2.130928 -1.548611 0.660474
H 0.487326 -2.032147 0.115565
C -0.371998 -0.324372 0.780957
O -0.282138 0.717745 1.446666
N 0.621816 -1.286169 0.795949
C 1.996553 -0.723688 0.741464
H 2.710684 -1.542438 0.600269
H 2.218025 -0.204354 1.674256
C -1.401543 -1.240984 -1.384353
H -1.125314 -2.304982 -1.386329
H -2.321804 -1.128992 -1.966459
H -0.575197 -0.64662 -1.79457
O -2.661576 0.290151 0.296753
C -2.215055 1.612509 -0.213528
H -2.075466 2.283887 0.637098
H -1.259684 1.551967 -0.751088
H -2.999481 1.996946 -0.879634
C 2.147779 0.345997 -0.442458
O 1.22322 0.341852 -1.337312
O 3.199813 1.032338 -0.37215
21
G: 25 x 25 i: 11 j: 23 E: 0.20035068340803264
C -1.505861 -0.617246 0.492656
H -1.381983 -0.945005 1.53071
H 0.963043 -0.51257 1.00976
C -0.631185 0.655265 0.303165
O -1.056477 1.72925 -0.186371
N 0.619257 0.448861 0.766679
C 1.823368 1.09287 0.228446
H 2.322401 1.739098 0.961634
H 1.581462 1.678083 -0.662508
C -1.010766 -1.723239 -0.477637
H -1.578122 -2.644411 -0.305246
H -1.177088 -1.400415 -1.511549
H 0.063929 -1.905266 -0.36568
O -2.930043 -0.296337 0.515035
C -3.454263 0.274212 -0.730097
H -2.857621 1.137165 -1.027756
H -3.489614 -0.462173 -1.548448
H -4.480097 0.578595 -0.492461
C 2.785985 -0.137416 -0.144308
O 2.406985 -1.251839 0.40505
O 3.786438 0.10995 -0.857284
21
G: 25 x 25 i: 10 j: 23 E: 0.1690499580818141
C -1.459832 -0.611702 0.437098
H -1.238639 -0.974487 1.446479
H 0.929639 -0.44853 1.101136
C -0.590138 0.649858 0.212971
O -0.970847 1.662245 -0.422226
N 0.610444 0.515546 0.830073
C 1.842673 1.1057 0.277004
H 2.368852 1.730288 1.008855
H 1.610854 1.699465 -0.610289
C -1.029051 -1.675608 -0.60438
H -1.591463 -2.602687 -0.44757
H -1.22834 -1.306094 -1.616513
H 0.049998 -1.858713 -0.517074
O -2.869383 -0.281781 0.626174
C -3.522709 0.27583 -0.564736
H -2.941959 1.113881 -0.952297
H -3.664419 -0.479355 -1.354263
H -4.508235 0.610998 -0.221463
C 2.751773 -0.157623 -0.110249
O 2.335863 -1.259456 0.43909
O 3.752404 0.052453 -0.834758
21
G: 25 x 25 i: 9 j: 23 E: 0.223074730263761
C -1.429846 -0.618756 0.377796
H -1.131359 -1.014898 1.353489
H 0.892002 -0.388832 1.169065
C -0.543671 0.617158 0.111478
O -0.869418 1.552958 -0.658034
N 0.590917 0.57227 0.863514
C 1.854022 1.120233 0.321932
H 2.388655 1.722416 1.065254
H 1.648133 1.722416 -0.565258
C -1.097429 -1.65719 -0.717409
H -1.673003 -2.576513 -0.563186
H -1.325012 -1.246042 -1.706823
H -0.018768 -1.863214 -0.66151
O -2.800748 -0.248919 0.725873
C -3.552163 0.337147 -0.392866
H -2.97536 1.141755 -0.852174
H -3.808711 -0.414485 -1.156786
H -4.479505 0.720908 0.047612
C 2.722261 -0.170878 -0.067697
O 2.264218 -1.261382 0.469678
O 3.734382 0.010382 -0.784228
21
G: 25 x 25 i: 8 j: 23 E: 0.34722574783154414
C -1.408968 -0.635179 0.331798
H -1.052331 -1.05901 1.274968
H 0.848331 -0.295531 1.240886
C -0.493583 0.560207 0.001953
O -0.760376 1.386368 -0.904269
N 0.561717 0.644476 0.864371
C 1.854164 1.145809 0.333899
H 2.386436 1.747325 1.078489
H 1.680282 1.730917 -0.570516
C -1.20639 -1.668013 -0.792458
H -1.817828 -2.561102 -0.624454
H -1.451457 -1.222119 -1.761765
H -0.136298 -1.923953 -0.775453
O -2.719246 -0.192674 0.81662
C -3.533292 0.440479 -0.230352
H -2.948593 1.193288 -0.76369
H -3.916445 -0.296821 -0.954358
H -4.381852 0.89802 0.290799
C 2.690498 -0.179174 -0.018367
O 2.191372 -1.244459 0.528919
O 3.718645 -0.037625 -0.721813
21
G: 25 x 25 i: 7 j: 23 E: 0.25272946542099817
C -1.657057 -0.756033 -0.246315
H -1.14619 -1.706391 -0.074503
H 1.000447 -0.95132 0.248041
C -0.6031 0.368268 -0.350842
O -0.961024 1.551272 -0.617967
N 0.635195 -0.000856 -0.026076
C 1.817741 0.856955 -0.017222
H 1.81529 1.55129 0.833947
H 1.910984 1.436957 -0.940307
C -2.498546 -0.790043 -1.529764
H -3.366476 -1.44362 -1.394852
H -2.820928 0.230834 -1.755339
H -1.89093 -1.152661 -2.366128
O -2.355386 -0.650062 1.050154
C -3.144871 0.577025 1.20532
H -2.580162 1.449731 0.868607
H -4.091589 0.531089 0.642579
H -3.373116 0.643036 2.274954
C 3.043941 -0.162634 0.125733
O 2.667501 -1.337474 0.507128
O 4.192366 0.293242 -0.098806
21
G: 25 x 25 i: 6 j: 23 E: 0.25361277456977405
C -1.707466 -0.285093 -0.752583
H -1.22389 -0.968746 -1.454535
H 0.945391 -0.800283 -0.559944
C -0.628863 0.600453 -0.088855
O -0.967864 1.6325 0.558183
N 0.596461 0.078486 -0.094472
C 1.78129 0.650132 0.540886
H 1.750836 0.545348 1.634024
H 1.9087 1.708736 0.295509
C -2.763651 0.587194 -1.436644
H -3.640738 -0.014352 -1.695552
H -3.036206 1.393957 -0.750331
H -2.347358 1.037368 -2.344785
O -2.145856 -1.286963 0.244183
C -2.810732 -0.694205 1.409081
H -2.274502 0.190133 1.76599
H -3.849668 -0.402742 1.185424
H -2.818933 -1.47796 2.17438
C 2.999105 -0.207006 -0.046851
O 2.607373 -1.300241 -0.610511
O 4.155479 0.245992 0.140761
21
G: 25 x 25 i: 5 j: 23 E: 0.28392148122111394
C -1.773073 -0.099516 -0.786827
H -1.352924 -0.509895 -1.708819
H 0.863912 -0.644698 -0.708991
C -0.676567 0.717313 -0.060346
O -0.992526 1.647842 0.732676
N 0.542096 0.186055 -0.148447
C 1.734135 0.639378 0.563421
H 1.680258 0.411777 1.637089
H 1.902514 1.713872 0.443765
C -3.009766 0.759506 -1.049715
H -3.862195 0.123889 -1.308815
H -3.217488 1.347727 -0.15182
H -2.812488 1.457782 -1.870848
O -1.918743 -1.374172 -0.048816
C -2.395787 -1.176134 1.322525
H -1.89946 -0.32657 1.80479
H -3.483065 -1.001659 1.358074
H -2.165361 -2.103572 1.857296
C 2.934309 -0.185175 -0.101616
O 2.519764 -1.192744 -0.792647
O 4.100518 0.206166 0.154132
21
G: 25 x 25 i: 4 j: 23 E: 0.12565948133851634
C -1.990009 -0.161251 -0.552395
H -2.02353 -0.216666 -1.646523
H 0.510156 -0.33692 -0.986497
C -0.935681 0.902988 -0.171982
O -1.170787 1.791148 0.67864
N 0.284766 0.642928 -0.697193
C 1.50806 1.141389 -0.046359
H 1.277845 1.451623 0.980491
H 1.95364 1.988486 -0.576947
C -3.357843 0.181581 0.037098
H -4.048091 -0.64675 -0.144996
H -3.244396 0.350331 1.110996
H -3.751775 1.102304 -0.406174
O -1.49003 -1.511984 -0.229447
C -0.462293 -1.550844 0.833326
H 0.530393 -1.322105 0.422723
H -0.698344 -0.854815 1.65122
H -0.486211 -2.576444 1.218318
C 2.529892 -0.078437 -0.047233
O 1.960766 -1.218058 -0.292037
O 3.729325 0.182383 0.210721
21
G: 25 x 25 i: 3 j: 23 E: 0.07393869810948672
C -2.014275 -0.116395 -0.525789
H -2.200813 -0.069441 -1.605282
H 0.478371 -0.390289 -0.916819
C -0.931467 0.939948 -0.201489
O -1.166638 1.911813 0.551149
N 0.286411 0.607235 -0.687821
C 1.51958 1.138649 -0.086956
H 1.299019 1.53974 0.91024
H 1.97374 1.932238 -0.688871
C -3.296759 0.153178 0.266325
H -4.048185 -0.601206 0.015175
H -3.0794 0.113584 1.337438
H -3.673508 1.155173 0.04453
O -1.449173 -1.46959 -0.445866
C -0.541352 -1.675117 0.706354
H 0.48431 -1.396094 0.430194
H -0.868172 -1.108449 1.590439
H -0.594172 -2.745398 0.934796
C 2.531381 -0.084911 0.012992
O 1.960021 -1.238391 -0.130753
O 3.733452 0.194592 0.242256
21
G: 25 x 25 i: 2 j: 23 E: 0.039146532901213504
C -2.0386 -0.085957 -0.478644
H -2.356789 0.031041 -1.522867
H 0.453122 -0.433167 -0.83584
C -0.936594 0.976305 -0.234319
O -1.174782 2.030874 0.397853
N 0.28446 0.569001 -0.636484
C 1.523234 1.129088 -0.084208
H 1.320843 1.579953 0.895769
H 1.968092 1.892685 -0.730788
C -3.227956 0.137885 0.463455
H -4.047784 -0.537367 0.200354
H -2.927025 -0.046611 1.499171
H -3.546644 1.180264 0.396004
O -1.457882 -1.425461 -0.585818
C -0.597671 -1.810644 0.560224
H 0.441001 -1.509418 0.369014
H -0.956466 -1.379961 1.505509
H -0.66775 -2.901911 0.624461
C 2.541824 -0.085784 0.057631
O 1.979825 -1.248422 -0.019709
O 3.745684 0.215025 0.251395
21
G: 25 x 25 i: 1 j: 23 E: 0.04754690873232903
C -2.056085 -0.047892 -0.4186
H -2.510005 0.132285 -1.403064
H 0.436627 -0.464388 -0.756681
C -0.931378 1.01316 -0.275505
O -1.164075 2.133766 0.235937
N 0.288355 0.541235 -0.583594
C 1.534941 1.118877 -0.077804
H 1.353675 1.613141 0.885506
H 1.974579 1.851126 -0.763393
C -3.119707 0.156561 0.670938
H -3.997354 -0.465858 0.470804
H -2.717845 -0.096543 1.656755
H -3.385632 1.21547 0.686345
O -1.513241 -1.375958 -0.69531
C -0.686208 -1.957595 0.392523
H 0.357603 -1.628193 0.303141
H -1.086069 -1.718509 1.3869
H -0.744754 -3.040893 0.244323
C 2.550935 -0.095493 0.098306
O 1.986925 -1.258252 0.080468
O 3.758606 0.211446 0.258326
21
G: 25 x 25 i: 0 j: 23 E: 0.09443190024467185
C -2.026749 0.05186 -0.440072
H -2.560426 0.335073 -1.357955
H 0.468889 -0.453727 -0.758072
C -0.855748 1.058773 -0.275809
O -1.083357 2.216606 0.148585
N 0.350309 0.547348 -0.558378
C 1.615572 1.087832 -0.062498
H 1.359828 1.533047 0.907578
H 2.137759 1.840071 -0.663068
C -2.996602 0.242194 0.739136
H -3.901738 -0.356601 0.596834
H -2.525223 -0.036783 1.686239
H -3.235889 1.306465 0.788176
O -1.624971 -1.324398 -0.711503
C -1.024159 -2.056549 0.429635
H 0.020783 -1.761804 0.592298
H -1.615457 -1.942745 1.347167
H -1.052477 -3.106803 0.123333
C 2.574639 -0.168308 0.145067
O 2.021571 -1.299508 -0.150177
O 3.778016 0.096995 0.392267
21
G: 25 x 25 i: 0 j: 24 E: 0.0586329405723518
C -1.982168 0.114604 -0.521805
H -2.452887 0.460626 -1.452728
H 0.531885 -0.408397 -0.864844
C -0.789849 1.059659 -0.207231
O -1.007669 2.201989 0.264503
N 0.404641 0.571116 -0.565174
C 1.688059 1.063204 -0.071404
H 1.557497 1.555986 0.898714
H 2.166107 1.77387 -0.756992
C -3.01543 0.304068 0.602976
H -3.934617 -0.247979 0.381925
H -2.616665 -0.031004 1.565352
H -3.211308 1.375607 0.679529
O -1.698767 -1.308477 -0.6773
C -1.268995 -2.021293 0.549588
H -0.209944 -1.838063 0.771875
H -1.901328 -1.774154 1.412572
H -1.403038 -3.081198 0.310918
C 2.62474 -0.221945 0.074047
O 2.047738 -1.332069 -0.252235
O 3.796657 -0.008053 0.47164
21
G: 25 x 25 i: 1 j: 24 E: 0.015341268408519682
C -1.957213 0.073141 -0.582339
H -2.268275 0.348195 -1.599804
H 0.560884 -0.390042 -0.915883
C -0.78833 1.003226 -0.157768
O -1.014937 2.0983 0.410153
N 0.412947 0.577272 -0.579316
C 1.686416 1.066395 -0.052924
H 1.539893 1.508468 0.938971
H 2.152523 1.81962 -0.700104
C -3.141497 0.339865 0.359339
H -4.034911 -0.186585 0.00967
H -2.907709 0.011914 1.376833
H -3.308868 1.418334 0.391299
O -1.696689 -1.364277 -0.575906
C -1.240841 -1.91756 0.723666
H -0.147816 -1.858916 0.805183
H -1.718148 -1.416545 1.576199
H -1.556203 -2.9664 0.71491
C 2.647796 -0.20368 0.036067
O 2.093863 -1.307888 -0.34858
O 3.812767 0.011705 0.452044
21
G: 25 x 25 i: 2 j: 24 E: 0.01012995941528061
C -1.92884 0.047935 -0.628936
H -2.11221 0.261923 -1.690029
H 0.59059 -0.357482 -0.98726
C -0.774675 0.949372 -0.120169
O -1.001713 1.974052 0.564317
N 0.42425 0.603814 -0.629083
C 1.692082 1.07256 -0.062139
H 1.523815 1.482697 0.939649
H 2.168159 1.845664 -0.677312
C -3.193563 0.381328 0.172318
H -4.047462 -0.176076 -0.224444
H -3.0505 0.119983 1.225247
H -3.374837 1.457099 0.123553
O -1.731132 -1.394804 -0.482868
C -1.230645 -1.811448 0.849286
H -0.133382 -1.838813 0.845723
H -1.594399 -1.152283 1.649806
H -1.633459 -2.816893 1.014673
C 2.650824 -0.199145 0.006633
O 2.100603 -1.289535 -0.423529
O 3.807598 -0.001728 0.452333
21
G: 25 x 25 i: 3 j: 24 E: 0.04753830993286101
C -1.898253 0.026071 -0.66648
H -1.964294 0.171919 -1.751249
H 0.629553 -0.306707 -1.058346
C -0.756442 0.895734 -0.087428
O -0.986435 1.827455 0.716806
N 0.43817 0.643423 -0.668037
C 1.699924 1.081837 -0.05551
H 1.511331 1.445728 0.960035
H 2.187315 1.879691 -0.627999
C -3.211864 0.444447 0.000506
H -4.02942 -0.175492 -0.3791
H -3.127197 0.318115 1.083581
H -3.412893 1.501511 -0.192111
O -1.80484 -1.411357 -0.381896
C -1.223978 -1.727263 0.942321
H -0.132702 -1.811771 0.862124
H -1.493779 -0.975266 1.698056
H -1.658372 -2.690309 1.233479
C 2.651118 -0.196053 -0.023977
O 2.098752 -1.2617 -0.513367
O 3.800053 -0.03065 0.452356
21
G: 25 x 25 i: 4 j: 24 E: 0.10025543844858475
C -1.870371 -0.008511 -0.687799
H -1.801427 0.039787 -1.780648
H 0.67347 -0.228353 -1.11481
C -0.752892 0.84759 -0.047155
O -0.999838 1.674991 0.860317
N 0.446081 0.685939 -0.652402
C 1.696316 1.085716 0.011
H 1.49398 1.348782 1.054455
H 2.176439 1.939329 -0.480881
C -3.22212 0.518114 -0.205238
H -4.01186 -0.167816 -0.523962
H -3.201056 0.590089 0.885149
H -3.41267 1.520541 -0.602777
O -1.921029 -1.413314 -0.238364
C -1.179234 -1.689321 1.009582
H -0.112177 -1.841159 0.80235
H -1.304692 -0.880865 1.744314
H -1.6218 -2.608218 1.410436
C 2.660748 -0.180922 -0.069498
O 2.117018 -1.199164 -0.662584
O 3.804418 -0.056225 0.429111
21
G: 25 x 25 i: 5 j: 24 E: 0.10920559334408608
C -1.841824 -0.052083 -0.671216
H -1.608391 -0.147587 -1.739961
H 0.701919 -0.117845 -1.131989
C -0.773798 0.826584 0.02023
O -1.062879 1.582964 0.976533
N 0.443072 0.721114 -0.5559
C 1.681299 1.06458 0.152358
H 1.4853 1.163546 1.225536
H 2.134035 1.994815 -0.209325
C -3.213641 0.580849 -0.459071
H -3.992168 -0.145262 -0.707863
H -3.282947 0.872318 0.592022
H -3.329526 1.478498 -1.077229
O -2.082417 -1.357588 -0.015462
C -1.082943 -1.772191 0.986269
H -0.091189 -1.964845 0.556679
H -0.982924 -1.019955 1.782064
H -1.493357 -2.693319 1.414789
C 2.67949 -0.15099 -0.127011
O 2.15296 -1.083467 -0.862406
O 3.825618 -0.07299 0.373486
21
G: 25 x 25 i: 6 j: 24 E: 0.09967482888168888
C -1.796527 -0.052934 -0.659244
H -1.462432 -0.246882 -1.687523
H 0.715549 0.008096 -1.154486
C -0.753729 0.802496 0.09526
O -1.058055 1.451296 1.121957
N 0.455643 0.797518 -0.510545
C 1.699017 1.059638 0.225554
H 1.501113 1.073661 1.302726
H 2.173616 2.005178 -0.059574
C -3.140949 0.666187 -0.624057
H -3.938274 -0.031179 -0.895912
H -3.280874 1.022626 0.400057
H -3.145858 1.52357 -1.306434
O -2.198427 -1.255514 0.097385
C -1.118683 -1.856044 0.903946
H -0.189226 -2.034201 0.345359
H -0.87874 -1.214599 1.763691
H -1.531364 -2.804344 1.264989
C 2.671115 -0.154101 -0.152924
O 2.123925 -1.011711 -0.96143
O 3.81825 -0.143571 0.350801
21
G: 25 x 25 i: 7 j: 24 E: 0.14467638357018586
C -1.748681 -0.011816 -0.656674
H -1.368374 -0.240218 -1.66109
H 0.728303 0.160427 -1.183627
C -0.697259 0.749595 0.179308
O -0.981291 1.227784 1.299601
N 0.479978 0.902628 -0.47925
C 1.73824 1.064418 0.271111
H 1.533377 1.02979 1.34578
H 2.257662 1.998814 0.033293
C -3.02608 0.823669 -0.700226
H -3.857447 0.208576 -1.057082
H -3.215984 1.150589 0.32601
H -2.903399 1.699317 -1.346908
O -2.304962 -1.152942 0.087033
C -1.256552 -1.920419 0.793398
H -0.339792 -2.057396 0.199386
H -0.977533 -1.405471 1.721942
H -1.705792 -2.890961 1.029721
C 2.648663 -0.178239 -0.167849
O 2.059673 -0.965265 -1.017646
O 3.793975 -0.251466 0.335127
21
G: 25 x 25 i: 8 j: 24 E: 0.24899119096335198
C -1.698037 0.052793 -0.645245
H -1.292684 -0.184902 -1.637527
H 0.735993 0.351889 -1.189863
C -0.625316 0.676122 0.272507
O -0.871792 0.941823 1.467728
N 0.508085 1.016094 -0.405582
C 1.786882 1.054907 0.338468
H 1.585839 0.95681 1.409052
H 2.353193 1.973207 0.153307
C -2.873395 1.028572 -0.723532
H -3.733225 0.535468 -1.187615
H -3.117617 1.301674 0.307186
H -2.603013 1.925605 -1.290357
O -2.412105 -1.032653 0.031933
C -1.450018 -1.982707 0.638894
H -0.52277 -2.078047 0.049384
H -1.170339 -1.633355 1.639399
H -1.962432 -2.948607 0.704352
C 2.617844 -0.210585 -0.189161
O 1.974878 -0.906438 -1.077384
O 3.761857 -0.381107 0.293994
21
G: 25 x 25 i: 9 j: 24 E: 0.2457561368628376
C -1.661946 0.693829 -0.218413
H -1.261037 1.197606 -1.110525
H 0.988359 0.724522 -0.631796
C -0.637702 -0.320261 0.346006
O -0.991659 -1.215596 1.153176
N 0.62268 -0.018337 0.024415
C 1.823328 -0.695551 0.502173
H 1.836429 -1.757687 0.228796
H 1.94257 -0.619059 1.589689
C -1.955357 1.695271 0.9031
H -2.77159 2.360809 0.604653
H -2.260337 1.112361 1.777217
H -1.059648 2.277482 1.139873
O -3.024064 0.17571 -0.362128
C -3.076574 -1.101281 -1.069
H -2.631052 -1.039416 -2.076148
H -2.560626 -1.877284 -0.495961
H -4.140292 -1.345976 -1.165324
C 3.030155 0.064337 -0.227063
O 2.628299 1.012208 -1.007204
O 4.190805 -0.337706 0.034631
21
G: 25 x 25 i: 10 j: 24 E: 0.22076538066721696
C -1.639962 0.67425 -0.202194
H -1.330358 1.11668 -1.162728
H 0.9914 0.758006 -0.548081
C -0.644643 -0.442218 0.207851
O -1.006146 -1.458051 0.851226
N 0.62037 -0.098932 -0.053699
C 1.819739 -0.833569 0.333837
H 1.870084 -1.82483 -0.133205
H 1.900327 -0.960576 1.42017
C -1.619203 1.732129 0.907506
H -2.35249 2.515747 0.690517
H -1.890578 1.237801 1.845234
H -0.618059 2.163447 0.994427
O -3.050443 0.313689 -0.115864
C -3.384063 -0.866024 -0.911643
H -3.145345 -0.724953 -1.980009
H -2.851756 -1.741896 -0.532692
H -4.466202 -1.001112 -0.805516
C 3.032175 0.070509 -0.194442
O 2.634704 1.141255 -0.797998
O 4.19265 -0.353924 0.030421
21
G: 25 x 25 i: 11 j: 24 E: 0.19967428972267953
C -1.631865 0.643254 -0.251868
H -1.470645 0.986159 -1.288033
H 0.993903 0.755887 -0.504876
C -0.655374 -0.524517 0.060761
O -1.026699 -1.601341 0.588906
N 0.614719 -0.168391 -0.159758
C 1.810254 -0.931897 0.181108
H 1.919996 -1.836937 -0.429199
H 1.830718 -1.224021 1.237797
C -1.337384 1.783033 0.733399
H -2.03163 2.611646 0.559034
H -1.488467 1.403892 1.748769
H -0.305932 2.12633 0.622017
O -3.021468 0.406324 0.113841
C -3.620332 -0.705536 -0.625193
H -3.602182 -0.529921 -1.715364
H -3.096991 -1.635223 -0.393585
H -4.663223 -0.756461 -0.293002
C 3.022885 0.069639 -0.127307
O 2.626751 1.213421 -0.5804
O 4.181705 -0.359212 0.096322
21
G: 25 x 25 i: 12 j: 24 E: 0.21062358429117012
C -1.64698 0.611817 -0.313912
H -1.632388 0.864453 -1.388787
H 1.006809 0.780278 -0.412274
C -0.656076 -0.558473 -0.046946
O -1.029943 -1.689693 0.352606
N 0.617664 -0.168915 -0.160527
C 1.806935 -0.962248 0.128572
H 1.928363 -1.808098 -0.559677
H 1.81084 -1.349153 1.154486
C -1.225832 1.831712 0.519717
H -1.947316 2.640922 0.366579
H -1.237943 1.546851 1.576016
H -0.223648 2.171786 0.250496
O -2.973528 0.433704 0.265026
C -3.736638 -0.637768 -0.379219
H -3.891771 -0.436795 -1.454525
H -3.220147 -1.590024 -0.251394
H -4.711475 -0.651168 0.121093
C 3.021218 0.066115 -0.066341
O 2.627619 1.246769 -0.418481
O 4.178261 -0.377478 0.134655
21
G: 25 x 25 i: 13 j: 24 E: 0.24288049088681873
C -1.674962 0.581441 -0.366381
H -1.796076 0.732545 -1.454476
H 1.013525 0.826989 -0.248936
C -0.648672 -0.563777 -0.123733
O -1.008431 -1.746536 0.112231
N 0.617071 -0.137243 -0.084368
C 1.801556 -0.963227 0.124274
H 1.894423 -1.757914 -0.626513
H 1.820036 -1.425794 1.118288
C -1.212742 1.888803 0.291577
H -2.007603 2.634106 0.187049
H -1.037493 1.706105 1.355351
H -0.294377 2.269036 -0.160921
O -2.927324 0.430735 0.374356
C -3.783539 -0.631081 -0.161462
H -4.076849 -0.424445 -1.20696
H -3.263245 -1.587549 -0.107038
H -4.683734 -0.631653 0.463542
C 3.024745 0.062059 -0.015343
O 2.640514 1.270206 -0.272267
O 4.179438 -0.40766 0.132881
21
G: 25 x 25 i: 14 j: 24 E: 0.2612547959888616
C -1.705662 0.550565 -0.429795
H -1.994291 0.587497 -1.496058
H 0.990773 0.840547 -0.138469
C -0.651357 -0.577427 -0.243519
O -0.995063 -1.78688 -0.15204
N 0.601746 -0.139587 -0.096876
C 1.787156 -0.974798 0.065978
H 1.906574 -1.69037 -0.757074
H 1.778932 -1.534827 1.008729
C -1.18867 1.923282 0.011562
H -2.01869 2.635483 -0.024719
H -0.821069 1.85611 1.038907
H -0.37849 2.273754 -0.632973
O -2.839713 0.456335 0.498184
C -3.773132 -0.618066 0.14779
H -4.24087 -0.438415 -0.837806
H -3.248706 -1.573906 0.131464
H -4.55254 -0.59876 0.917821
C 3.004587 0.065629 0.066901
O 2.617567 1.290943 -0.081111
O 4.158287 -0.409787 0.204319
21
G: 25 x 25 i: 15 j: 24 E: 0.2647355962126312
C -1.743441 0.523834 -0.492397
H -2.191254 0.463014 -1.499607
H 0.953333 0.845865 -0.081701
C -0.658215 -0.580299 -0.380924
O -0.981912 -1.80016 -0.413793
N 0.576846 -0.139335 -0.13396
C 1.76507 -0.973521 0.014235
H 1.925805 -1.621949 -0.856008
H 1.723334 -1.605585 0.909407
C -1.212632 1.934766 -0.240173
H -2.052008 2.636468 -0.261797
H -0.746322 1.97111 0.747991
H -0.473088 2.221035 -0.992927
O -2.724712 0.478828 0.606259
C -3.673722 -0.629503 0.46951
H -4.320912 -0.496203 -0.416787
H -3.136246 -1.574781 0.378234
H -4.295469 -0.603216 1.371204
C 2.968612 0.073651 0.147218
O 2.573074 1.303069 0.077902
O 4.12116 -0.400984 0.296494
21
G: 25 x 25 i: 16 j: 24 E: 0.2665256979435071
C -1.792838 0.493221 -0.542426
H -2.39183 0.33852 -1.454392
H 0.896927 0.850548 -0.059473
C -0.673023 -0.575878 -0.526681
O -0.971644 -1.796357 -0.660963
N 0.541906 -0.134396 -0.198714
C 1.736287 -0.960555 -0.054473
H 1.951681 -1.538138 -0.961994
H 1.659867 -1.660055 0.786701
C -1.285466 1.930741 -0.468706
H -2.140083 2.614308 -0.46622
H -0.727774 2.064542 0.462062
H -0.628981 2.159184 -1.313008
O -2.578562 0.494606 0.709293
C -3.472193 -0.662155 0.806716
H -4.28993 -0.600725 0.066024
H -2.918452 -1.588689 0.638019
H -3.898692 -0.627386 1.814941
C 2.913798 0.088598 0.218437
O 2.501735 1.314174 0.22316
O 4.065288 -0.381818 0.388653
21
G: 25 x 25 i: 17 j: 24 E: 0.28176590322436823
C -1.853704 0.441362 -0.564599
H -2.582906 0.18159 -1.346354
H 0.817412 0.850884 -0.044581
C -0.696605 -0.579011 -0.653287
O -0.961143 -1.796176 -0.866492
N 0.497738 -0.13036 -0.266128
C 1.70857 -0.93419 -0.135761
H 1.977341 -1.435026 -1.074121
H 1.617757 -1.697679 0.646407
C -1.413475 1.897535 -0.680535
H -2.290852 2.550237 -0.633342
H -0.757558 2.138415 0.160222
H -0.87159 2.067657 -1.615272
O -2.40958 0.510694 0.804918
C -3.176941 -0.690117 1.142618
H -4.133565 -0.723544 0.591715
H -2.611767 -1.595355 0.902128
H -3.381413 -0.626388 2.216371
C 2.845342 0.119408 0.264095
O 2.400926 1.330434 0.345142
O 4.001529 -0.335975 0.444499
21
G: 25 x 25 i: 18 j: 24 E: 0.31836664669936
C -1.929519 0.324289 -0.553213
H -2.75899 -0.093084 -1.141451
H 0.707579 0.836581 -0.044208
C -0.73115 -0.637631 -0.716413
O -0.944374 -1.859155 -0.95085
N 0.445945 -0.143727 -0.329773
C 1.692093 -0.89363 -0.217903
H 2.00663 -1.325179 -1.176291
H 1.622544 -1.705257 0.516859
C -1.623294 1.762537 -0.962518
H -2.521356 2.377706 -0.84535
H -0.844465 2.163654 -0.308988
H -1.276397 1.804829 -1.999191
O -2.229085 0.578282 0.871406
C -2.773318 -0.615749 1.519232
H -3.816517 -0.801298 1.20971
H -2.186141 -1.507444 1.273322
H -2.744189 -0.42083 2.595814
C 2.76845 0.1876 0.267674
O 2.265935 1.369409 0.408568
O 3.941289 -0.224546 0.446755
21
G: 25 x 25 i: 19 j: 24 E: 0.32504367036017356
C -2.088374 -0.173355 -0.277713
H -2.96396 -0.760752 0.035379
H 0.470062 0.52867 -0.575944
C -0.853255 -1.04001 0.073709
O -0.984201 -2.105822 0.720809
N 0.310617 -0.463976 -0.256631
C 1.635277 -0.942083 0.12812
H 1.967872 -1.791007 -0.48222
H 1.672179 -1.242667 1.182421
C -2.147259 0.145301 -1.770794
H -3.013537 0.783905 -1.974043
H -1.240658 0.680118 -2.061777
H -2.223926 -0.776885 -2.355426
O -2.055318 1.202766 0.24187
C -1.587502 1.264049 1.621695
H -2.15712 0.592501 2.283213
H -0.525131 1.002568 1.696908
H -1.730353 2.300864 1.941651
C 2.607304 0.305391 -0.123178
O 1.988759 1.339651 -0.585632
O 3.822398 0.135249 0.147355
21
G: 25 x 25 i: 20 j: 24 E: 0.06821342025614285
C -2.068924 -0.014182 0.175248
H -2.745189 -0.239206 1.014286
H 0.250263 0.326567 -0.80515
C -0.89207 -1.00654 0.289393
O -0.902372 -1.941265 1.119651
N 0.144445 -0.674024 -0.519008
C 1.508839 -1.144441 -0.240047
H 1.880821 -1.826878 -1.013422
H 1.528666 -1.662409 0.7247
C -2.784479 -0.217926 -1.163673
H -3.583081 0.524127 -1.267648
H -2.059378 -0.080377 -1.968939
H -3.205115 -1.227102 -1.222732
O -1.703636 1.390794 0.017018
C -0.626356 1.83211 0.928168
H -0.712524 1.352423 1.915035
H 0.353197 1.622724 0.479865
H -0.761357 2.912757 1.044389
C 2.431763 0.153712 -0.197124
O 1.782905 1.254087 -0.42034
O 3.651845 -0.028722 0.03128
21
G: 25 x 25 i: 21 j: 24 E: 0.01228447616995254
C -2.040893 0.020241 0.232175
H -2.611418 -0.106837 1.165446
H 0.267863 0.37938 -0.740975
C -0.888665 -1.006766 0.267402
O -0.944953 -2.019677 0.998679
N 0.167144 -0.623064 -0.484173
C 1.520372 -1.138617 -0.249782
H 1.865603 -1.793452 -1.05909
H 1.541494 -1.703907 0.688299
C -2.922912 -0.295766 -0.982711
H -3.736281 0.434225 -1.050471
H -2.301704 -0.227501 -1.879681
H -3.331759 -1.307516 -0.897616
O -1.676901 1.385094 -0.118231
C -0.668402 1.975094 0.791128
H -0.818992 1.631994 1.826512
H 0.342672 1.733503 0.438466
H -0.828352 3.057528 0.747576
C 2.481137 0.130073 -0.161308
O 1.8682 1.259387 -0.32156
O 3.698286 -0.104994 0.037278
21
G: 25 x 25 i: 22 j: 24 E: 0.00019899694234482013
C -2.005688 0.038785 0.272834
H -2.44379 -0.01596 1.28218
H 0.31399 0.420028 -0.68552
C -0.876529 -1.01388 0.212914
O -0.988629 -2.095933 0.831815
N 0.21189 -0.58285 -0.45104
C 1.552875 -1.131092 -0.240206
H 1.885409 -1.765827 -1.070883
H 1.570661 -1.727033 0.678985
C -3.055642 -0.362774 -0.772742
H -3.904389 0.328302 -0.74247
H -2.58773 -0.313804 -1.760492
H -3.389594 -1.385788 -0.575187
O -1.692797 1.369834 -0.219298
C -0.739465 2.104928 0.64486
H -0.935021 1.897992 1.709067
H 0.295446 1.854507 0.376419
H -0.924246 3.165916 0.447508
C 2.537908 0.117997 -0.118221
O 1.94986 1.263739 -0.240023
O 3.750975 -0.150412 0.065137
21
G: 25 x 25 i: 23 j: 24 E: 0.016795091698440956
C -1.967208 0.043786 0.296641
H -2.252665 0.049004 1.361646
H 0.378037 0.451564 -0.628973
C -0.859688 -1.024302 0.135819
O -1.022919 -2.16105 0.636613
N 0.266213 -0.553303 -0.41929
C 1.596606 -1.1233 -0.217397
H 1.926626 -1.744657 -1.059229
H 1.612373 -1.736266 0.69071
C -3.164187 -0.423659 -0.542315
H -4.033567 0.2191 -0.369947
H -2.885527 -0.372194 -1.599595
H -3.389851 -1.459004 -0.271564
O -1.73254 1.347543 -0.301401
C -0.836062 2.211382 0.50173
H -1.068745 2.122525 1.575444
H 0.219318 1.976579 0.308238
H -1.048237 3.233976 0.173084
C 2.592653 0.117507 -0.072409
O 2.015882 1.270152 -0.174595
O 3.802835 -0.166143 0.107233
21
G: 25 x 25 i: 24 j: 24 E: 0.05933662728784839
C -1.97707 0.077248 0.229971
H -2.190551 0.179625 1.307213
H 0.425335 0.435392 -0.612844
C -0.874799 -1.007429 0.126687
O -1.116773 -2.162773 0.54884
N 0.287399 -0.553307 -0.354019
C 1.603594 -1.139973 -0.127486
H 1.915616 -1.820976 -0.92855
H 1.624708 -1.689737 0.81966
C -3.235752 -0.427798 -0.485328
H -4.097802 0.207955 -0.260342
H -3.051645 -0.409094 -1.564164
H -3.416242 -1.456381 -0.162426
O -1.640566 1.366097 -0.356934
C -0.848801 2.23713 0.539212
H -1.262165 2.22286 1.56069
H 0.211939 1.954251 0.548513
H -0.951165 3.245688 0.126662
C 2.620995 0.093282 -0.076922
O 2.060448 1.244668 -0.251285
O 3.828287 -0.196891 0.110244