3
total: 403 i: 0 x: 245.3851669903163 y: 9.33516055983011 E: 0.015355372677879897
Li -10.947415589329248 -1.299033356919299 0.0 
H 19.404714362658396 -1.299033356919299 0.0 
H -8.457298773329143 2.598066713838598 0.0 
3
total: 403 i: 1 x: 245.38516699031288 y: 9.335160559826624 E: 0.015355372677724407
Li -10.947415589325638 -1.299033356918438 0.0 
H 19.404714362652797 -1.299033356918438 0.0 
H -8.457298773327157 2.598066713836876 0.0 
3
total: 403 i: 2 x: 245.38516699031064 y: 9.335160559824285 E: 0.015355372677619755
Li -10.947415589323215 -1.2990333569178578 0.0 
H 19.40471436264903 -1.2990333569178578 0.0 
H -8.457298773325817 2.598066713835715 0.0 
3
total: 403 i: 3 x: 245.3851669903085 y: 9.335160559822128 E: 0.015355372677523788
Li -10.947415589320983 -1.299033356917324 0.0 
H 19.40471436264557 -1.299033356917324 0.0 
H -8.457298773324586 2.5980667138346485 0.0 
3
total: 403 i: 4 x: 245.38516699030478 y: 9.335160559818306 E: 0.01535537267735357
Li -10.947415589317025 -1.2990333569163797 0.0 
H 19.40471436263943 -1.2990333569163797 0.0 
H -8.457298773322409 2.5980667138327593 0.0 
3
total: 403 i: 5 x: 245.3851669902989 y: 9.335160559812275 E: 0.015355372677083987
Li -10.94741558931078 -1.2990333569148889 0.0 
H 19.40471436262975 -1.2990333569148889 0.0 
H -8.45729877331897 2.5980667138297777 0.0 
3
total: 403 i: 6 x: 245.385166990291 y: 9.335160559804178 E: 0.01535537267672278
Li -10.947415589302395 -1.2990333569128858 0.0 
H 19.404714362616744 -1.2990333569128858 0.0 
H -8.457298773314347 2.598066713825771 0.0 
3
total: 403 i: 7 x: 245.38516699028006 y: 9.335160559792966 E: 0.01535537267622251
Li -10.947415589290785 -1.2990333569101125 0.0 
H 19.40471436259873 -1.2990333569101125 0.0 
H -8.457298773307949 2.5980667138202254 0.0 
3
total: 403 i: 8 x: 245.38516699026508 y: 9.33516055977763 E: 0.015355372675537883
Li -10.947415589274902 -1.2990333569063217 0.0 
H 19.404714362574104 -1.2990333569063217 0.0 
H -8.457298773299204 2.598066713812644 0.0 
3
total: 403 i: 9 x: 245.38516699024342 y: 9.335160559755437 E: 0.01535537267454815
Li -10.94741558925192 -1.2990333569008328 0.0 
H 19.404714362538463 -1.2990333569008328 0.0 
H -8.457298773286539 2.598066713801666 0.0 
3
total: 403 i: 10 x: 245.3851669902152 y: 9.335160559726543 E: 0.01535537267325917
Li -10.947415589222002 -1.2990333568936876 0.0 
H 19.404714362492058 -1.2990333568936876 0.0 
H -8.457298773270058 2.598066713787375 0.0 
3
total: 403 i: 11 x: 245.38516699017555 y: 9.335160559685926 E: 0.015355372671446314
Li -10.947415589179942 -1.2990333568836439 0.0 
H 19.40471436242683 -1.2990333568836439 0.0 
H -8.457298773246883 2.598066713767288 0.0 
3
total: 403 i: 12 x: 245.38516699011964 y: 9.335160559628676 E: 0.015355372668892165
Li -10.94741558912066 -1.2990333568694872 0.0 
H 19.404714362334882 -1.2990333568694872 0.0 
H -8.457298773214225 2.598066713738975 0.0 
3
total: 403 i: 13 x: 245.38516699004268 y: 9.335160559549841 E: 0.015355372665374529
Li -10.947415589039023 -1.299033356849991 0.0 
H 19.404714362208267 -1.299033356849991 0.0 
H -8.457298773169244 2.598066713699982 0.0 
3
total: 403 i: 14 x: 245.38516698993823 y: 9.335160559442869 E: 0.01535537266060152
Li -10.94741558892825 -1.299033356823539 0.0 
H 19.404714362036465 -1.299033356823539 0.0 
H -8.457298773108219 2.5980667136470776 0.0 
3
total: 403 i: 15 x: 245.38516698979498 y: 9.335160559296144 E: 0.015355372654054978
Li -10.947415588776314 -1.299033356787256 0.0 
H 19.40471436180082 -1.299033356787256 0.0 
H -8.457298773024513 2.5980667135745117 0.0 
3
total: 403 i: 16 x: 245.38516698959583 y: 9.335160559092154 E: 0.01535537264495294
Li -10.947415588565073 -1.299033356736811 0.0 
H 19.404714361473204 -1.299033356736811 0.0 
H -8.457298772908128 2.5980667134736217 0.0 
3
total: 403 i: 17 x: 245.3851669893121 y: 9.335160558801574 E: 0.015355372631988133
Li -10.947415588264173 -1.2990333566649535 0.0 
H 19.404714361006526 -1.2990333566649535 0.0 
H -8.45729877274235 2.5980667133299074 0.0 
3
total: 403 i: 18 x: 245.38516698894227 y: 9.335160558422759 E: 0.015355372615085714
Li -10.947415587871896 -1.2990333565712777 0.0 
H 19.40471436039813 -1.2990333565712777 0.0 
H -8.457298772526231 2.598066713142556 0.0 
3
total: 403 i: 19 x: 245.38516698841863 y: 9.33516055788647 E: 0.015355372591157088
Li -10.947415587316556 -1.29903335643866 0.0 
H 19.40471435953683 -1.29903335643866 0.0 
H -8.457298772220277 2.59806671287732 0.0 
3
total: 403 i: 20 x: 245.38516698767387 y: 9.335160557123666 E: 0.01535537255712234
Li -10.94741558652665 -1.2990333562500271 0.0 
H 19.404714358311736 -1.2990333562500271 0.0 
H -8.457298771785085 2.598066712500054 0.0 
3
total: 403 i: 21 x: 245.3851669866423 y: 9.335160556067096 E: 0.015355372509979382
Li -10.947415585432543 -1.29903335598875 0.0 
H 19.40471435661484 -1.29903335598875 0.0 
H -8.457298771182298 2.5980667119774994 0.0 
3
total: 403 i: 22 x: 245.38516698525564 y: 9.335160554646823 E: 0.015355372446608812
Li -10.947415583961812 -1.2990333556375337 0.0 
H 19.404714354333827 -1.2990333556375337 0.0 
H -8.457298770372018 2.5980667112750675 0.0 
3
total: 403 i: 23 x: 245.38516698327032 y: 9.335160552613393 E: 0.015355372355878527
Li -10.94741558185614 -1.2990333551346895 0.0 
H 19.40471435106806 -1.2990333551346895 0.0 
H -8.45729876921192 2.5980667102693786 0.0 
3
total: 403 i: 24 x: 245.3851669805814 y: 9.335160549859342 E: 0.01535537223299697
Li -10.947415579004243 -1.2990333544536457 0.0 
H 19.404714346644944 -1.2990333544536457 0.0 
H -8.457298767640705 2.5980667089072913 0.0 
3
total: 403 i: 25 x: 245.38516697694004 y: 9.33516054612974 E: 0.015355372066587401
Li -10.947415575142138 -1.2990333535313592 0.0 
H 19.404714340655058 -1.2990333535313592 0.0 
H -8.457298765512924 2.598066707062718 0.0 
3
total: 403 i: 26 x: 245.38516697198742 y: 9.335160541057135 E: 0.015355371840253124
Li -10.947415569889314 -1.2990333522769626 0.0 
H 19.40471433250825 -1.2990333522769626 0.0 
H -8.457298762618938 2.5980667045539256 0.0 
3
total: 403 i: 27 x: 245.38516696479195 y: 9.335160533687313 E: 0.015355371511421089
Li -10.94741556225766 -1.2990333504544924 0.0 
H 19.404714320672028 -1.2990333504544924 0.0 
H -8.45729875841437 2.5980667009089844 0.0 
3
total: 403 i: 28 x: 245.3851669553684 y: 9.335160524035407 E: 0.01535537108076514
Li -10.947415552262846 -1.2990333480676892 0.0 
H 19.40471430517069 -1.2990333480676892 0.0 
H -8.45729875290784 2.598066696135379 0.0 
3
total: 403 i: 29 x: 245.3851669425316 y: 9.335160510887611 E: 0.015355370494126351
Li -10.94741553864794 -1.2990333448163947 0.0 
H 19.404714284054812 -1.2990333448163947 0.0 
H -8.45729874540687 2.5980666896327893 0.0 
3
total: 403 i: 30 x: 245.38516692358834 y: 9.33516049148536 E: 0.015355369628422903
Li -10.947415518556381 -1.299033340018446 0.0 
H 19.40471425289404 -1.299033340018446 0.0 
H -8.457298734337662 2.598066680036892 0.0 
3
total: 403 i: 31 x: 245.38516689945396 y: 9.33516046676618 E: 0.01535536852548409
Li -10.947415492958994 -1.2990333339056839 0.0 
H 19.404714213194076 -1.2990333339056839 0.0 
H -8.457298720235082 2.598066667811368 0.0 
3
total: 403 i: 32 x: 245.3851668656393 y: 9.335160432132202 E: 0.015355366980159454
Li -10.947415457094566 -1.2990333253411093 0.0 
H 19.404714157570567 -1.2990333253411093 0.0 
H -8.457298700475997 2.5980666506822185 0.0 
3
total: 403 i: 33 x: 245.38516681844862 y: 9.335160383798119 E: 0.015355364823554832
Li -10.947415407043316 -1.299033313388662 0.0 
H 19.404714079944167 -1.299033313388662 0.0 
H -8.457298672900853 2.5980666267773245 0.0 
3
total: 403 i: 34 x: 245.38516675244446 y: 9.335160316194687 E: 0.015355361807176107
Li -10.947415337038146 -1.299033296671133 0.0 
H 19.404713971370477 -1.299033296671133 0.0 
H -8.457298634332332 2.598066593342266 0.0 
3
total: 403 i: 35 x: 245.38516666289485 y: 9.335160224475313 E: 0.015355357714774706
Li -10.947415242060297 -1.2990332739900234 0.0 
H 19.404713824065723 -1.2990332739900234 0.0 
H -8.457298582005423 2.5980665479800473 0.0 
3
total: 403 i: 36 x: 245.3851665400885 y: 9.335160098693388 E: 0.015355352102547805
Li -10.94741511180982 -1.2990332428856537 0.0 
H 19.404713622055304 -1.2990332428856537 0.0 
H -8.457298510245487 2.598066485771308 0.0 
3
total: 403 i: 37 x: 245.3851663702084 y: 9.33515992469705 E: 0.015355344339059964
Li -10.947414931632151 -1.2990331998584461 0.0 
H 19.404713342610933 -1.2990331998584461 0.0 
H -8.45729841097878 2.598066399716892 0.0 
3
total: 403 i: 38 x: 245.38516614206426 y: 9.335159691024954 E: 0.015355333912922101
Li -10.947414689658872 -1.299033142074162 0.0 
H 19.404712967325445 -1.299033142074162 0.0 
H -8.457298277666572 2.5980662841483237 0.0 
3
total: 403 i: 39 x: 245.38516581744133 y: 9.335159358536247 E: 0.01535531907772973
Li -10.94741434535887 -1.2990330598537703 0.0 
H 19.404712433337664 -1.2990330598537703 0.0 
H -8.457298087978792 2.598066119707541 0.0 
3
total: 403 i: 40 x: 245.38516538064073 y: 9.335158911151602 E: 0.015355299116056882
Li -10.947413882082005 -1.299032949221096 0.0 
H 19.404711714824337 -1.299032949221096 0.0 
H -8.457297832742329 2.598065898442192 0.0 
3
total: 403 i: 41 x: 245.38516477578378 y: 9.335158291638201 E: 0.015355271474279729
Li -10.947413240563122 -1.2990327960232693 0.0 
H 19.4047107198691 -1.2990327960232693 0.0 
H -8.457297479305975 2.598065592046538 0.0 
3
total: 403 i: 42 x: 245.38516393572615 y: 9.335157431224413 E: 0.0153552330839517
Li -10.947412349589209 -1.2990325832541176 0.0 
H 19.404709338025384 -1.2990325832541176 0.0 
H -8.457296988436177 2.598065166508235 0.0 
3
total: 403 i: 43 x: 245.38516280199175 y: 9.335156270016501 E: 0.015355181272786286
Li -10.947411147141793 -1.2990322961030265 0.0 
H 19.40470747310707 -1.2990322961030265 0.0 
H -8.457296325965274 2.598064592206053 0.0 
3
total: 403 i: 44 x: 245.38516125386377 y: 9.335154684371291 E: 0.015355110524180062
Li -10.94740950519128 -1.2990319039953102 0.0 
H 19.404704926549563 -1.2990319039953102 0.0 
H -8.457295421358285 2.59806380799062 0.0 
3
total: 403 i: 45 x: 245.38515900038647 y: 9.33515237627965 E: 0.0153550075418293
Li -10.94740711515679 -1.299031333238843 0.0 
H 19.404701219766487 -1.299031333238843 0.0 
H -8.4572941046097 2.598062666477686 0.0 
3
total: 403 i: 46 x: 245.38515601534903 y: 9.335149318891192 E: 0.015354871128295387
Li -10.94740394925301 -1.2990305771962893 0.0 
H 19.404696309668772 -1.2990305771962893 0.0 
H -8.457292360415764 2.5980611543925782 0.0 
3
total: 403 i: 47 x: 245.38515195991855 y: 9.335145165153161 E: 0.015354685799878654
Li -10.947399648140776 -1.2990295500511826 0.0 
H 19.404689638953244 -1.2990295500511826 0.0 
H -8.45728999081247 2.5980591001023656 0.0 
3
total: 403 i: 48 x: 245.38514640581081 y: 9.335139476385145 E: 0.015354431985757451
Li -10.947393757636123 -1.299028143333536 0.0 
H 19.404680503226828 -1.299028143333536 0.0 
H -8.457286745590698 2.598056286667072 0.0 
3
total: 403 i: 49 x: 245.38513839007913 y: 9.335131266263028 E: 0.01535406568348251
Li -10.947385256568774 -1.2990261131621643 0.0 
H 19.404667318761014 -1.2990261131621643 0.0 
H -8.457282062192235 2.598052226324329 0.0 
3
total: 403 i: 50 x: 245.3851278026466 y: 9.335120421987273 E: 0.015353581867527886
Li -10.947374028370275 -1.299023431673792 0.0 
H 19.40464990481852 -1.299023431673792 0.0 
H -8.457275876448243 2.5980468633475837 0.0 
3
total: 403 i: 51 x: 245.38511237720047 y: 9.335104622155797 E: 0.015352876983616218
Li -10.94735766992691 -1.299019524911104 0.0 
H 19.40462453448818 -1.299019524911104 0.0 
H -8.457266864561262 2.5980390498222086 0.0 
3
total: 403 i: 52 x: 245.38509097772229 y: 9.335082702954015 E: 0.015351899140090244
Li -10.94733497723942 -1.299014105226179 0.0 
H 19.404589340700667 -1.299014105226179 0.0 
H -8.45725436346125 2.598028210452358 0.0 
3
total: 403 i: 53 x: 245.3850620432238 y: 9.335053065093799 E: 0.015350577042718272
Li -10.947304296251657 -1.2990067773979483 0.0 
H 19.40454175857419 -1.2990067773979483 0.0 
H -8.457237462322535 2.5980135547958962 0.0 
3
total: 403 i: 54 x: 245.3850232707126 y: 9.3350133489231 E: 0.015348805521897197
Li -10.947263187166937 -1.2989969583871346 0.0 
H 19.40447800495687 -1.2989969583871346 0.0 
H -8.457214817789932 2.5979939167742687 0.0 
3
total: 403 i: 55 x: 245.3849681563384 y: 9.334956890893459 E: 0.015346287541530635
Li -10.947204758766278 -1.2989830015444204 0.0 
H 19.404387394015153 -1.2989830015444204 0.0 
H -8.45718263524887 2.5979660030888407 0.0 
3
total: 403 i: 56 x: 245.3848931564329 y: 9.334880058272146 E: 0.015342861442951721
Li -10.947125263004656 -1.2989640103084206 0.0 
H 19.404264115827793 -1.2989640103084206 0.0 
H -8.457138852823142 2.597928020616841 0.0 
3
total: 403 i: 57 x: 245.38478507113456 y: 9.334769323136982 E: 0.015337924730969557
Li -10.947010726691422 -1.298936643934889 0.0 
H 19.404086506718016 -1.298936643934889 0.0 
H -8.4570757800266 2.5978732878697786 0.0 
3
total: 403 i: 58 x: 245.38463655412266 y: 9.334617148439188 E: 0.015331142819252333
Li -10.946853399653108 -1.2988990456382952 0.0 
H 19.403842558827247 -1.2988990456382952 0.0 
H -8.456989159174139 2.597798091276591 0.0 
3
total: 403 i: 59 x: 245.3844424391949 y: 9.334418223875444 E: 0.015322281308688446
Li -10.94664786417266 -1.2988499127074375 0.0 
H 19.403523887721484 -1.2988499127074375 0.0 
H -8.45687602354883 2.5976998254148755 0.0 
3
total: 403 i: 60 x: 245.3841650156029 y: 9.334133869634059 E: 0.015309621783835941
Li -10.946354303840003 -1.2987797106818408 0.0 
H 19.403068793567588 -1.2987797106818408 0.0 
H -8.456714489727585 2.5975594213636812 0.0 
3
total: 403 i: 61 x: 245.38377179440192 y: 9.333730710606767 E: 0.015291688387691477
Li -10.945938582672634 -1.2986802410154457 0.0 
H 19.40242442825612 -1.2986802410154457 0.0 
H -8.456485845583481 2.5973604820308918 0.0 
3
total: 403 i: 62 x: 245.3832495611643 y: 9.333195072601248 E: 0.015267889784313505
Li -10.945387139865595 -1.29854819943512 0.0 
H 19.401569893340227 -1.29854819943512 0.0 
H -8.45618275347463 2.5970963988702396 0.0 
3
total: 403 i: 63 x: 245.38250206787373 y: 9.332427984824555 E: 0.015233862651613805
Li -10.944599165697817 -1.2983593277189907 0.0 
H 19.400349212897925 -1.2983593277189907 0.0 
H -8.455750047200109 2.5967186554379813 0.0 
3
total: 403 i: 64 x: 245.3815212118937 y: 9.331420693942254 E: 0.015189277887322562
Li -10.943567546201052 -1.2981117126367345 0.0 
H 19.39875178800502 -1.2981117126367345 0.0 
H -8.45518424180397 2.596223425273469 0.0 
3
total: 403 i: 65 x: 245.38012452262132 y: 9.329984959855373 E: 0.01512591897218289
Li -10.942103140949042 -1.2977595505658894 0.0 
H 19.396485562457777 -1.2977595505658894 0.0 
H -8.454382421508736 2.595519101131779 0.0 
3
total: 403 i: 66 x: 245.3781999943439 y: 9.328003966102337 E: 0.015038859226625524
Li -10.940093982988591 -1.2972751147338035 0.0 
H 19.393378885591595 -1.2972751147338035 0.0 
H -8.453284902603007 2.5945502294676066 0.0 
3
total: 403 i: 67 x: 245.3755885132802 y: 9.325311014215009 E: 0.01492117182360253
Li -10.9373834562044 -1.2966192475850302 0.0 
H 19.38919241558264 -1.2966192475850302 0.0 
H -8.451808959378242 2.593238495170061 0.0 
3
total: 403 i: 68 x: 245.37197978587147 y: 9.321580735706364 E: 0.014759382104505862
Li -10.933667057998777 -1.2957156755087218 0.0 
H 19.383461095372745 -1.2957156755087218 0.0 
H -8.449794037373966 2.5914313510174436 0.0 
3
total: 403 i: 69 x: 245.3668276568274 y: 9.316237628661604 E: 0.014530058039950278
Li -10.92841797197927 -1.2944310160975625 0.0 
H 19.37538321711922 -1.2944310160975625 0.0 
H -8.446965245139957 2.5888620321951255 0.0 
3
total: 403 i: 70 x: 245.35988493576798 y: 9.309006539794934 E: 0.014224061519830213
Li -10.921445505367918 -1.2927094280324327 0.0 
H 19.364683904581362 -1.2927094280324327 0.0 
H -8.44323839921345 2.585418856064866 0.0 
3
total: 403 i: 71 x: 245.3500788750152 y: 9.298736093608968 E: 0.013797636190921801
Li -10.911783065973019 -1.2902954389453918 0.0 
H 19.349913971331077 -1.2902954389453918 0.0 
H -8.438130905358058 2.580590877890784 0.0 
3
total: 403 i: 72 x: 245.33592982994003 y: 9.283808442850502 E: 0.013193888796418427
Li -10.898193969963275 -1.2868459647140822 0.0 
H 19.329252164378808 -1.2868459647140822 0.0 
H -8.43105819441553 2.573691929428164 0.0 
3
total: 403 i: 73 x: 245.3148661039594 y: 9.26137326552031 E: 0.012319389010232613
Li -10.878653080949478 -1.281776913260437 0.0 
H 19.299761203554326 -1.281776913260437 0.0 
H -8.42110812260484 2.5635538265208746 0.0 
3
total: 403 i: 74 x: 245.28507369500977 y: 9.229267570277218 E: 0.011130167276160247
Li -10.852225094940882 -1.2747247043687064 0.0 
H 19.260274557466346 -1.2747247043687064 0.0 
H -8.408049462525462 2.549449408737413 0.0 
3
total: 403 i: 75 x: 245.24195851887367 y: 9.182167270530996 E: 0.00950464159300363
Li -10.816039929407806 -1.2647217683674505 0.0 
H 19.2069124485716 -1.2647217683674505 0.0 
H -8.390872519163793 2.5294435367349015 0.0 
3
total: 403 i: 76 x: 245.17794500968054 y: 9.111156143030906 E: 0.00729654367819822
Li -10.765799833246112 -1.2502212553451744 0.0 
H 19.13406327271332 -1.2502212553451744 0.0 
H -8.36826343946721 2.500442510690349 0.0 
3
total: 403 i: 77 x: 245.0835335830052 y: 9.00472043450712 E: 0.004500431026110658
Li -10.697173331664025 -1.2294068351316838 0.0 
H 19.036591279992596 -1.2294068351316838 0.0 
H -8.33941794832857 2.4588136702633676 0.0 
3
total: 403 i: 78 x: 244.94752300865986 y: 8.849060893122903 E: 0.0015350615253026739
Li -10.60576269612099 -1.2002562512291857 0.0 
H 18.909639819281963 -1.2002562512291857 0.0 
H -8.303877123160973 2.400512502458371 0.0 
3
total: 403 i: 79 x: 244.7687865900673 y: 8.642294132456957 E: -7.839839693148268e-05
Li -10.492827814269125 -1.162900996418368 0.0 
H 18.755499359505045 -1.162900996418368 0.0 
H -8.262671545235916 2.3258019928367366 0.0 
3
total: 403 i: 80 x: 244.56176328471759 y: 8.402527216999918 E: 0.002235065865945234
Li -10.363741634669722 -1.120303002205742 0.0 
H 18.57911099790417 -1.120303002205742 0.0 
H -8.215369363234448 2.240606004411484 0.0 
3
total: 403 i: 81 x: 244.4100848684957 y: 8.22946602516975 E: 0.00770441689161379
Li -10.26262367066317 -1.0890165424001823 0.0 
H 18.436752704638177 -1.0890165424001823 0.0 
H -8.174129033975008 2.178033084800364 0.0 
3
total: 403 i: 82 x: 244.29966820969315 y: 8.108295063612472 E: 0.014409440925843729
Li -10.17645033371192 -1.0656278273060076 0.0 
H 18.308862867943862 -1.0656278273060076 0.0 
H -8.132412534231943 2.1312556546120147 0.0 
3
total: 403 i: 83 x: 244.23070754185474 y: 8.039401133700194 E: 0.020337501322531662
Li -10.1048427399575 -1.0499801908648734 0.0 
H 18.19499160182088 -1.0499801908648734 0.0 
H -8.090148861863385 2.0999603817297468 0.0 
3
total: 403 i: 84 x: 244.19756292252308 y: 8.015094655735314 E: 0.024284439860913824
Li -10.047312527802374 -1.0410137246526243 0.0 
H 18.09627162996395 -1.0410137246526243 0.0 
H -8.048959102161579 2.082027449305249 0.0 
3
total: 403 i: 85 x: 244.19013734321288 y: 8.020631978322612 E: 0.02608381866317241
Li -10.00557858030127 -1.037152277761627 0.0 
H 18.01934756818089 -1.037152277761627 0.0 
H -8.013768987879624 2.0743045555232547 0.0 
3
total: 403 i: 86 x: 244.19551033173857 y: 8.039609112664877 E: 0.026573716028071036
Li -9.97539613272214 -1.036044914287507 0.0 
H 17.96032477211815 -1.036044914287507 0.0 
H -7.984928639396008 2.072089828575014 0.0 
3
total: 403 i: 87 x: 244.21057568859834 y: 8.071622178909243 E: 0.026268648566850565
Li -9.94643608354403 -1.0365192773660823 0.0 
H 17.900595712703996 -1.0365192773660823 0.0 
H -7.954159629159968 2.0730385547321646 0.0 
3
total: 403 i: 88 x: 244.2453872363849 y: 8.133979605438935 E: 0.02469387098202387
Li -9.909985431067785 -1.039545199838008 0.0 
H 17.820514034315725 -1.039545199838008 0.0 
H -7.910528603247938 2.0790903996760157 0.0 
3
total: 403 i: 89 x: 244.2909933839244 y: 8.20931993937542 E: 0.022289316052910204
Li -9.878848120712354 -1.0445297080219755 0.0 
H 17.747249110252653 -1.0445297080219755 0.0 
H -7.8684009895403 2.089059416043951 0.0 
3
total: 403 i: 90 x: 244.36181468534198 y: 8.321185969268296 E: 0.018562447253837974
Li -9.843827452445135 -1.0530411803482536 0.0 
H 17.658947138076066 -1.0530411803482536 0.0 
H -7.815119685630927 2.106082360696507 0.0 
3
total: 403 i: 91 x: 244.46599532875462 y: 8.480750608894978 E: 0.013611105850229246
Li -9.805145904358879 -1.0662273905493553 0.0 
H 17.55369407383401 -1.0662273905493553 0.0 
H -7.748548169475134 2.132454781098711 0.0 
3
total: 403 i: 92 x: 244.60674951150256 y: 8.691845354349105 E: 0.008217041245875672
Li -9.764169707933126 -1.084504765062911 0.0 
H 17.433349563779686 -1.084504765062911 0.0 
H -7.66917985584656 2.1690095301258223 0.0 
3
total: 403 i: 93 x: 244.78623932987014 y: 8.957276852492733 E: 0.0034673747828379174
Li -9.720996947615477 -1.107996265044147 0.0 
H 17.297766580789954 -1.107996265044147 0.0 
H -7.576769633174478 2.215992530088294 0.0 
3
total: 403 i: 94 x: 245.0042475421153 y: 9.27677183002292 E: 0.0004841346338982078
Li -9.67504927149376 -1.1363753009396567 0.0 
H 17.14631356248742 -1.1363753009396567 0.0 
H -7.471264290993657 2.2727506018793138 0.0 
3
total: 403 i: 95 x: 245.2585562412968 y: 9.647576561723094 E: 4.9414957711251875e-05
Li -9.624970058697324 -1.1689247174800366 0.0 
H 16.977556587900608 -1.1689247174800366 0.0 
H -7.352586529203286 2.3378494349600736 0.0 
3
total: 403 i: 96 x: 245.54462043673703 y: 10.064056567310015 E: 0.00236590459551511
Li -9.568649500398353 -1.204503382989458 0.0 
H 16.789391267021642 -1.204503382989458 0.0 
H -7.220741766623288 2.4090067659789165 0.0 
3
total: 403 i: 97 x: 245.85240957712415 y: 10.513244597830852 E: 0.006959516189366333
Li -9.5037470224259 -1.2411814517374744 0.0 
H 16.580885119775857 -1.2411814517374744 0.0 
H -7.077138097349952 2.4823629034749493 0.0 
3
total: 403 i: 98 x: 246.16511001874863 y: 10.973027491552164 E: 0.012773162702074526
Li -9.428182407571951 -1.2762046031384022 0.0 
H 16.353408253044115 -1.2762046031384022 0.0 
H -6.925225845472163 2.5524092062768045 0.0 
3
total: 403 i: 99 x: 246.46572384178154 y: 11.421814256974422 E: 0.018616661523849956
Li -9.339016606138033 -1.3068731171578913 0.0 
H 16.10655847237105 -1.3068731171578913 0.0 
H -6.7675418662330165 2.6137462343157827 0.0 
3
total: 403 i: 100 x: 246.73214651252755 y: 11.831315563696837 E: 0.02336510639528878
Li -9.233857105929847 -1.3300699918510925 0.0 
H 15.842035096398046 -1.3300699918510925 0.0 
H -6.608177990468201 2.6601399837021855 0.0 
3
total: 403 i: 101 x: 246.93694803660836 y: 12.165308292821425 E: 0.02608663616594
Li -9.112942964222201 -1.3425734623332415 0.0 
H 15.567289394395706 -1.3425734623332415 0.0 
H -6.454346430173507 2.6851469246664825 0.0 
3
total: 403 i: 102 x: 247.05127319053116 y: 12.37932059952485 E: 0.02634226840992929
Li -8.989940597221656 -1.3428548386454346 0.0 
H 15.31390025705421 -1.3428548386454346 0.0 
H -6.3239596598325525 2.685709677290869 0.0 
3
total: 403 i: 103 x: 247.08487912050742 y: 12.488797574052233 E: 0.024417883089432654
Li -8.861381808832059 -1.3323719435962647 0.0 
H 15.071900026835953 -1.3323719435962647 0.0 
H -6.210518218003891 2.664743887192529 0.0 
3
total: 403 i: 104 x: 247.05361104329114 y: 12.502685639819052 E: 0.02135151673218891
Li -8.751836288705093 -1.3162764866475365 0.0 
H 14.880981825744392 -1.3162764866475365 0.0 
H -6.129145537039301 2.6325529732950725 0.0 
3
total: 403 i: 105 x: 246.96114814543066 y: 12.442407157783293 E: 0.016715030274585586
Li -8.628685902175114 -1.2916335969828276 0.0 
H 14.680410594600584 -1.2916335969828276 0.0 
H -6.05172469242547 2.5832671939656553 0.0 
3
total: 403 i: 106 x: 246.77948386997315 y: 12.27705441305007 E: 0.010149457034856955
Li -8.479490131739839 -1.2541810358089973 0.0 
H 14.453795402674602 -1.2541810358089973 0.0 
H -5.974305270934764 2.508362071617995 0.0 
3
total: 403 i: 107 x: 246.53640591058854 y: 12.030009313704118 E: 0.0038911400001066863
Li -8.330448527665446 -1.2104114980656837 0.0 
H 14.24115014064596 -1.2104114980656837 0.0 
H -5.910701612980512 2.420822996131368 0.0 
3
total: 403 i: 108 x: 246.25743966776162 y: 11.733420908358513 E: 9.29058804815832e-05
Li -8.184922986263205 -1.163752181556117 0.0 
H 14.042022128883003 -1.163752181556117 0.0 
H -5.857099142619802 2.327504363112234 0.0 
3
total: 403 i: 109 x: 245.98075808930002 y: 11.435343035921383 E: 0.0007904730804484721
Li -8.049045396294522 -1.1191400246990189 0.0 
H 13.858408114046581 -1.1191400246990189 0.0 
H -5.809362717752058 2.2382800493980373 0.0 
3
total: 403 i: 110 x: 245.76959750863406 y: 11.210859616683525 E: 0.005315221951187717
Li -7.9415904700899125 -1.0852663861826 0.0 
H 13.710240714472196 -1.0852663861826 0.0 
H -5.768650244382284 2.1705327723652 0.0 
3
total: 403 i: 111 x: 245.6113902458216 y: 11.050301936631556 E: 0.011824880128696823
Li -7.849814858013044 -1.0591772539678281 0.0 
H 13.57765456543315 -1.0591772539678281 0.0 
H -5.727839707420104 2.1183545079356563 0.0 
3
total: 403 i: 112 x: 245.50918426936732 y: 10.958260039609307 E: 0.018216521021202796
Li -7.773011365556013 -1.0409278513141136 0.0 
H 13.459065687582921 -1.0409278513141136 0.0 
H -5.686054322026908 2.0818557026282267 0.0 
3
total: 403 i: 113 x: 245.45800909087652 y: 10.928173542516888 E: 0.02293990941253914
Li -7.710491437966887 -1.0297226433616837 0.0 
H 13.3547402038059 -1.0297226433616837 0.0 
H -5.644248765839013 2.059445286723368 0.0 
3
total: 403 i: 114 x: 245.44611747739773 y: 10.943275766625494 E: 0.025463191481631293
Li -7.662683692166433 -1.0241748598497165 0.0 
H 13.26850072842026 -1.0241748598497165 0.0 
H -5.605817036253827 2.0483497196994325 0.0 
3
total: 403 i: 115 x: 245.4499968953307 y: 10.96212473578875 E: 0.026080122518472963
Li -7.6424496019940635 -1.0227968492758397 0.0 
H 13.229920002754046 -1.0227968492758397 0.0 
H -5.587470400759981 2.04559369855168 0.0 
3
total: 403 i: 116 x: 245.45909710937482 y: 10.98730931928399 E: 0.026354836537485174
Li -7.623655396378589 -1.0221074791468157 0.0 
H 13.192815232374919 -1.0221074791468157 0.0 
H -5.569159835996327 2.0442149582936313 0.0 
3
total: 403 i: 117 x: 245.480442394703 y: 11.033777366440662 E: 0.02621745853183921
Li -7.5985459477797646 -1.0221633708995783 0.0 
H 13.141138608307394 -1.0221633708995783 0.0 
H -5.54259266052763 2.044326741799157 0.0 
3
total: 403 i: 118 x: 245.5264821498151 y: 11.119888388559731 E: 0.025076044466084878
Li -7.5655931659743425 -1.0241282248670287 0.0 
H 13.069235580640942 -1.0241282248670287 0.0 
H -5.503642414666597 2.0482564497340574 0.0 
3
total: 403 i: 119 x: 245.59486713525482 y: 11.236802897405735 E: 0.022839084897753596
Li -7.533075765427973 -1.0284346929070043 0.0 
H 12.993151099656362 -1.0284346929070043 0.0 
H -5.460075334228391 2.056869385814009 0.0 
3
total: 403 i: 120 x: 245.68568411330568 y: 11.384147517308103 E: 0.01969634191432378
Li -7.501615518259776 -1.0350922452622342 0.0 
H 12.914114662148272 -1.0350922452622342 0.0 
H -5.412499143888494 2.0701844905244684 0.0 
3
total: 403 i: 121 x: 245.82882490614185 y: 11.6080187661871 E: 0.01501069847166411
Li -7.464187402607473 -1.0464683999477984 0.0 
H 12.812509982497446 -1.0464683999477984 0.0 
H -5.34832257988997 2.0929367998955968 0.0 
3
total: 403 i: 122 x: 246.02279875830538 y: 11.903259316175745 E: 0.009651354428625816
Li -7.424902431343262 -1.0625682969649233 0.0 
H 12.696662564868646 -1.0625682969649233 0.0 
H -5.271760133525386 2.125136593929847 0.0 
3
total: 403 i: 123 x: 246.27418451042882 y: 12.27860142473578 E: 0.004563420268240642
Li -7.383620126351857 -1.0837802986153495 0.0 
H 12.565288853185198 -1.0837802986153495 0.0 
H -5.181668726833343 2.1675605972306986 0.0 
3
total: 403 i: 124 x: 246.58422415163216 y: 12.735271650742646 E: 0.0009135642129440224
Li -7.340098240209376 -1.109862989019683 0.0 
H 12.418222179283042 -1.109862989019683 0.0 
H -5.078123939073665 2.2197259780393663 0.0 
3
total: 403 i: 125 x: 246.95213058248652 y: 13.272153916360802 E: -0.00037880329216518916
Li -7.293216001379766 -1.1402205629036726 0.0 
H 12.254226668832668 -1.1402205629036726 0.0 
H -4.961010667452902 2.2804411258073447 0.0 
3
total: 403 i: 126 x: 247.3743080605395 y: 13.884731852269452 E: 0.0010842760540996043
Li -7.24110505126766 -1.1738453788206578 0.0 
H 12.071405456406517 -1.1738453788206578 0.0 
H -4.830300405138855 2.347690757641315 0.0 
3
total: 403 i: 127 x: 247.8432060851698 y: 14.563707509857185 E: 0.00505770075670206
Li -7.181175787058479 -1.2092321433663884 0.0 
H 11.86746829871884 -1.2092321433663884 0.0 
H -4.686292511660358 2.4184642867327772 0.0 
3
total: 403 i: 128 x: 248.3353564291144 y: 15.27809524206444 E: 0.010598243632435668
Li -7.111687861717377 -1.2435882627020038 0.0 
H 11.644841804696487 -1.2435882627020038 0.0 
H -4.53315394297911 2.487176525404008 0.0 
3
total: 403 i: 129 x: 248.83027721388663 y: 16.00291237971704 E: 0.01653511501846953
Li -7.02959920261825 -1.274403973928073 0.0 
H 11.402744738994635 -1.274403973928073 0.0 
H -4.373145536376383 2.5488079478561465 0.0 
3
total: 403 i: 130 x: 249.29937147957685 y: 16.703435632821982 E: 0.021703531997491116
Li -6.932166465829741 -1.2987273899186738 0.0 
H 11.142183699945107 -1.2987273899186738 0.0 
H -4.210017234115369 2.5974547798373475 0.0 
3
total: 403 i: 131 x: 249.70447781034312 y: 17.33271917637075 E: 0.02509934027788101
Li -6.818186578759062 -1.313400117075734 0.0 
H 10.868095844716986 -1.313400117075734 0.0 
H -4.049909265957922 2.6268002341514674 0.0 
3
total: 403 i: 132 x: 249.90848562983007 y: 17.669790436600092 E: 0.02600400027161234
Li -6.738259944719446 -1.316508304471856 0.0 
H 10.69217574832448 -1.316508304471856 0.0 
H -3.953915803605032 2.633016608943712 0.0 
3
total: 403 i: 133 x: 250.08132821119597 y: 17.98495461637527 E: 0.025713170638214135
Li -6.639202117124353 -1.3136261521408856 0.0 
H 10.489645777788795 -1.3136261521408856 0.0 
H -3.8504436606644394 2.627252304281771 0.0 
3
total: 403 i: 134 x: 250.18908884948155 y: 18.24585461746287 E: 0.023414078898115868
Li -6.511092349722973 -1.300740774048133 0.0 
H 10.249085509251081 -1.300740774048133 0.0 
H -3.737993159528107 2.601481548096266 0.0 
3
total: 403 i: 135 x: 250.18538352019047 y: 18.360380792581335 E: 0.019635498858087283
Li -6.389613143489416 -1.2806986998671845 0.0 
H 10.039487199068322 -1.2806986998671845 0.0 
H -3.649874055578909 2.5613973997343695 0.0 
3
total: 403 i: 136 x: 250.08068494089738 y: 18.358263681082743 E: 0.014321755026243
Li -6.258622363946906 -1.2521627296800222 0.0 
H 9.830079266731634 -1.2521627296800222 0.0 
H -3.571456902784726 2.504325459360045 0.0 
3
total: 403 i: 137 x: 249.85224837602766 y: 18.220195522326588 E: 0.007592693056113311
Li -6.109148151495738 -1.2126470409510723 0.0 
H 9.607989283640572 -1.2126470409510723 0.0 
H -3.4988411321448356 2.4252940819021447 0.0 
3
total: 403 i: 138 x: 249.53186814969638 y: 17.96739308322294 E: 0.0017144934936261967
Li -5.959988187499125 -1.1678251285379222 0.0 
H 9.399594951512334 -1.1678251285379222 0.0 
H -3.43960676401321 2.3356502570758444 0.0 
3
total: 403 i: 139 x: 249.16438159432653 y: 17.651421484770847 E: -0.0010209863675537279
Li -5.8161161219065685 -1.1216818909157626 0.0 
H 9.205873118441907 -1.1216818909157626 0.0 
H -3.3897569965353376 2.2433637818315253 0.0 
3
total: 403 i: 140 x: 248.80892527208633 y: 17.342185482264544 E: 0.0010450181876314748
Li -5.683317120224164 -1.0789409632553368 0.0 
H 9.027655127586925 -1.0789409632553368 0.0 
H -3.3443380073627607 2.1578819265106732 0.0 
3
total: 403 i: 141 x: 248.55476631761144 y: 17.13313798143659 E: 0.006360162658860426
Li -5.580964002648567 -1.0478740409861351 0.0 
H 8.885913634824446 -1.0478740409861351 0.0 
H -3.3049496321758784 2.0957480819722702 0.0 
3
total: 403 i: 142 x: 248.37952704118783 y: 17.012605445007374 E: 0.012995047533129321
Li -5.493959417531118 -1.024437963045167 0.0 
H 8.758326605067719 -1.024437963045167 0.0 
H -3.264367187536601 2.048875926090334 0.0 
3
total: 403 i: 143 x: 248.28631802626364 y: 16.98472976872481 E: 0.01891880745060571
Li -5.421949572379553 -1.0085036156406606 0.0 
H 8.644376445481306 -1.0085036156406606 0.0 
H -3.2224268731017545 2.0170072312813216 0.0 
3
total: 403 i: 144 x: 248.26421362145845 y: 17.03485305227071 E: 0.022889882037215113
Li -5.3643320856153816 -0.9990801706195885 0.0 
H 8.545115507054032 -0.9990801706195885 0.0 
H -3.180783421438651 1.9981603412391773 0.0 
3
total: 403 i: 145 x: 248.28897868724692 y: 17.1274317386565 E: 0.024710439679804356
Li -5.322436917611479 -0.9947182790584049 0.0 
H 8.466842415065724 -0.9947182790584049 0.0 
H -3.1444054974542466 1.9894365581168096 0.0 
3
total: 403 i: 146 x: 248.33121279799337 y: 17.225406091624624 E: 0.02518206034048152
Li -5.293766238918159 -0.9932296167451752 0.0 
H 8.409587767387062 -0.9932296167451752 0.0 
H -3.1158215284689024 1.9864592334903501 0.0 
3
total: 403 i: 147 x: 248.39479298409566 y: 17.350762414162872 E: 0.024905307733463725
Li -5.266321650985238 -0.9931408864937431 0.0 
H 8.35146667054444 -0.9931408864937431 0.0 
H -3.085145019559202 1.986281772987486 0.0 
3
total: 403 i: 148 x: 248.51180556413402 y: 17.558361812094162 E: 0.023430064598866367
Li -5.232047452199354 -0.9951454716291382 0.0 
H 8.273597535822834 -0.9951454716291382 0.0 
H -3.0415500836234775 1.9902909432582763 0.0 
3
total: 403 i: 149 x: 248.6571358862191 y: 17.798646264716016 E: 0.021020152286180673
Li -5.201579907181528 -0.9991835574843703 0.0 
H 8.198692595850893 -0.9991835574843703 0.0 
H -2.9971126886693646 1.9983671149687408 0.0 
3
total: 403 i: 150 x: 248.86169767750377 y: 18.12112212334372 E: 0.017407948749635947
Li -5.1691792387683515 -1.006112619519208 0.0 
H 8.11232368988945 -1.006112619519208 0.0 
H -2.9431444511210993 2.0122252390384157 0.0 
3
total: 403 i: 151 x: 249.15900513743819 y: 18.572291805850686 E: 0.012453815506879351
Li -5.133105778308508 -1.0173317730284175 0.0 
H 8.007108577381533 -1.0173317730284175 0.0 
H -2.874002799073026 2.0346635460568354 0.0 
3
total: 403 i: 152 x: 249.5552649897777 y: 19.15527433541686 E: 0.006960885795743355
Li -5.095495654618077 -1.033117231591205 0.0 
H 7.8866267822808975 -1.033117231591205 0.0 
H -2.7911311276628203 2.0662344631824103 0.0 
3
total: 403 i: 153 x: 250.06178189118623 y: 19.881824885494975 E: 0.0019743814174665968
Li -5.056466245521714 -1.053614905919749 0.0 
H 7.750378001899764 -1.053614905919749 0.0 
H -2.6939117563780512 2.107229811839498 0.0 
3
total: 403 i: 154 x: 250.68486713461544 y: 20.756546229934855 E: -0.0013715295989655202
Li -5.015584899202902 -1.0784825133534401 0.0 
H 7.597812305872689 -1.0784825133534401 0.0 
H -2.5822274066697877 2.1569650267068807 0.0 
3
total: 403 i: 155 x: 251.42857450384156 y: 21.780930582439836 E: -0.002257379106910316
Li -4.971610676987023 -1.1069949403942803 0.0 
H 7.427515552928085 -1.1069949403942803 0.0 
H -2.4559048759410618 2.21398988078856 0.0 
3
total: 403 i: 156 x: 252.16544801482337 y: 22.77970947223752 E: -0.0008438234427945744
Li -4.929820741698259 -1.133564877906078 0.0 
H 7.265339691452165 -1.133564877906078 0.0 
H -2.3355189497539044 2.2671297558121557 0.0 
3
total: 403 i: 157 x: 252.91873039562563 y: 23.7874164846382 E: 0.0020339166965963567
Li -4.886731542384341 -1.1586927217607805 0.0 
H 7.102397676305024 -1.1586927217607805 0.0 
H -2.2156661339206827 2.3173854435215606 0.0 
3
total: 403 i: 158 x: 253.8315352723678 y: 24.994247907219762 E: 0.006459830264727409
Li -4.831796660773808 -1.1860182863327813 0.0 
H 6.9049840007085646 -1.1860182863327813 0.0 
H -2.0731873399347567 2.3720365726655626 0.0 
3
total: 403 i: 159 x: 254.8297714333459 y: 26.301323953559002 E: 0.011490610208753287
Li -4.76570970238709 -1.2114475582642463 0.0 
H 6.684852614440954 -1.2114475582642463 0.0 
H -1.9191429120538643 2.422895116528492 0.0 
3
total: 403 i: 160 x: 255.6111314172511 y: 27.319956808351915 E: 0.015046185358082123
Li -4.707603312746651 -1.227611853650115 0.0 
H 6.506289233683795 -1.227611853650115 0.0 
H -1.7986859209371442 2.45522370730023 0.0 
3
total: 403 i: 161 x: 256.21267206039005 y: 28.105154127245463 E: 0.01733490356288873
Li -4.657732028318902 -1.2374529176463573 0.0 
H 6.363026982725842 -1.2374529176463573 0.0 
H -1.70529495440694 2.4749058352927147 0.0 
3
total: 403 i: 162 x: 256.4907721650291 y: 28.469551726705937 E: 0.01821748406394937
Li -4.632801341323316 -1.241131289291248 0.0 
H 6.294531222914281 -1.241131289291248 0.0 
H -1.661729881590965 2.482262578582496 0.0 
3
total: 403 i: 163 x: 256.9913026549469 y: 29.12975100572537 E: 0.019460318590053746
Li -4.5842783321521265 -1.246166015109875 0.0 
H 6.166617948943283 -1.246166015109875 0.0 
H -1.582339616791157 2.4923320302197505 0.0 
3
total: 403 i: 164 x: 257.4497965893082 y: 29.742596402523525 E: 0.02012314984388387
Li -4.534758081275623 -1.24870419683263 0.0 
H 6.042745412770886 -1.24870419683263 0.0 
H -1.5079873314952636 2.4974083936652605 0.0 
3
total: 403 i: 165 x: 257.9698699287823 y: 30.454044581173584 E: 0.020153675194289306
Li -4.4707269573990835 -1.2485878245021687 0.0 
H 5.891375446988032 -1.2485878245021687 0.0 
H -1.4206484895889493 2.497175649004337 0.0 
3
total: 403 i: 166 x: 258.472346673658 y: 31.170826477762006 E: 0.019153873282396507
Li -4.397360044407024 -1.2443887606980872 0.0 
H 5.728542454140743 -1.2443887606980872 0.0 
H -1.33118240973372 2.488777521396175 0.0 
3
total: 403 i: 167 x: 258.9218548254521 y: 31.86000297481823 E: 0.016879011329844092
Li -4.31595158088522 -1.2354000659618591 0.0 
H 5.559190263765518 -1.2354000659618591 0.0 
H -1.243238682880298 2.4708001319237187 0.0 
3
total: 403 i: 168 x: 259.28958397875033 y: 32.49923413296973 E: 0.013151174460446405
Li -4.227696518584142 -1.2212859102290832 0.0 
H 5.386961486543792 -1.2212859102290832 0.0 
H -1.15926496795965 2.4425718204581663 0.0 
3
total: 403 i: 169 x: 259.55267286397583 y: 33.076040376657694 E: 0.0078416189075092
Li -4.133637142005576 -1.2019886872403063 0.0 
H 5.2142341688551985 -1.2019886872403063 0.0 
H -1.080597026849622 2.403977374480612 0.0 
3
total: 403 i: 170 x: 259.69285080655635 y: 33.586163614785455 E: 0.0008685496553623911
Li -4.034799322274725 -1.1776746370371298 0.0 
H 5.042497371339267 -1.1776746370371298 0.0 
H -1.0076980490645417 2.3553492740742596 0.0 
3
total: 403 i: 171 x: 259.69617045760356 y: 34.03357451804901 E: -0.007794498050029452
Li -3.932299763119026 -1.1487132349148232 0.0 
H 4.872553137887502 -1.1487132349148232 0.0 
H -0.9402533747684769 2.297426469829646 0.0 
3
total: 403 i: 172 x: 259.55355189992315 y: 34.431709487947266 E: -0.01811861694017115
Li -3.827466099014753 -1.1156848713155945 0.0 
H 4.704656792939886 -1.1156848713155945 0.0 
H -0.8771906939251339 2.2313697426311894 0.0 
3
total: 403 i: 173 x: 259.2619673438638 y: 34.805589244187644 E: -0.030074438365751976
Li -3.7219659426406753 -1.0794020534975992 0.0 
H 4.5386390786582105 -1.0794020534975992 0.0 
H -0.8166731360175365 2.1588041069951984 0.0 
3
total: 403 i: 174 x: 258.82569010626946 y: 35.19392053828976 E: -0.043825802493920256
Li -3.6178916730425676 -1.0409065470903285 0.0 
H 4.374024468191422 -1.0409065470903285 0.0 
H -0.7561327951488548 2.0818130941806565 0.0 
3
total: 403 i: 175 x: 258.256243228663 y: 35.6494928208397 E: -0.06015618929173252
Li -3.5176951063833166 -1.0013790562538136 0.0 
H 4.210125027562807 -1.0013790562538136 0.0 
H -0.6924299211794911 2.0027581125076273 0.0 
3
total: 403 i: 176 x: 257.56922323975976 y: 36.23633255707927 E: -0.08115412441945154
Li -3.4238755447377827 -0.9619080023497143 0.0 
H 4.046047320892422 -0.9619080023497143 0.0 
H -0.6221717761546399 1.9238160046994284 0.0 
3
total: 403 i: 177 x: 257.2511888531383 y: 36.53657284643739 E: -0.09221293374226724
Li -3.387134642175235 -0.9456372665609071 0.0 
H 3.9772647117131146 -0.9456372665609071 0.0 
H -0.590130069537881 1.891274533121814 0.0 
3
total: 403 i: 178 x: 257.1679376839039 y: 36.61869505055184 E: -0.09530325747856422
Li -3.3780885515437746 -0.9415448434712596 0.0 
H 3.9598147077526344 -0.9415448434712596 0.0 
H -0.5817261562088594 1.8830896869425193 0.0 
3
total: 403 i: 179 x: 257.0905928777127 y: 36.696356953634336 E: -0.09825583372911596
Li -3.3698820477406213 -0.9377996339006959 0.0 
H 3.9437879367828663 -0.9377996339006959 0.0 
H -0.5739058890422442 1.8755992678013915 0.0 
3
total: 403 i: 180 x: 256.92755292823443 y: 36.86445991918124 E: -0.10475552500010377
Li -3.3531803377508482 -0.9300747324700241 0.0 
H 3.9105514247175246 -0.9300747324700241 0.0 
H -0.5573710869666759 1.8601494649400485 0.0 
3
total: 403 i: 181 x: 256.73626984569944 y: 37.06942955517802 E: -0.11290068152411027
Li -3.3345629188571606 -0.9212852424952035 0.0 
H 3.8724300999581307 -0.9212852424952035 0.0 
H -0.5378671811009701 1.8425704849904068 0.0 
3
total: 403 i: 182 x: 256.3632022734663 y: 37.493681690574356 E: -0.13062118953853272
Li -3.301039961295596 -0.9048996853194424 0.0 
H 3.800481440733996 -0.9048996853194424 0.0 
H -0.4994414794383992 1.8097993706388849 0.0 
3
total: 403 i: 183 x: 255.49560211927334 y: 38.60466609590871 E: -0.18338229673279952
Li -3.2353502094340763 -0.8699013473000005 0.0 
H 3.6433286095909696 -0.8699013473000005 0.0 
H -0.4079784001568929 1.7398026946000011 0.0 
3
total: 403 i: 184 x: 254.4233462975705 y: 40.20051822705052 E: -0.27741819850281696
Li -3.1731013087737168 -0.8307985531748646 0.0 
H 3.464822835485669 -0.8307985531748646 0.0 
H -0.29172152671195173 1.661597106349729 0.0 
3
total: 403 i: 185 x: 253.31728750497987 y: 42.069708980576095 E: -0.4172664675047958
Li -3.125134018081875 -0.7931454413698632 0.0 
H 3.295112886892348 -0.7931454413698632 0.0 
H -0.16997886881047197 1.5862908827397262 0.0 
3
total: 403 i: 186 x: 252.15944901689528 y: 44.239936390947236 E: -0.6211690849059901
Li -3.0874287284976885 -0.7548138723944621 0.0 
H 3.1295141734434995 -0.7548138723944621 0.0 
H -0.04208544494581101 1.5096277447889244 0.0 
3
total: 403 i: 187 x: 250.60735761759184 y: 47.48823461233493 E: -1.0071404873750684
Li -3.0502989632726916 -0.702700831614576 0.0 
H 2.9205633185101467 -0.702700831614576 0.0 
H 0.12973564476254396 1.405401663229152 0.0 
3
total: 403 i: 188 x: 249.73755914525483 y: 49.50036038493497 E: -1.2907664951005373
Li -3.0340752975193706 -0.6721312095253135 0.0 
H 2.807101714969182 -0.6721312095253135 0.0 
H 0.22697358255018818 1.3442624190506272 0.0 
3
total: 403 i: 189 x: 249.62334104834548 y: 49.77639287888083 E: -1.3321225036667148
Li -3.032130809448771 -0.6680049800446662 0.0 
H 2.792285314425038 -0.6680049800446662 0.0 
H 0.2398454950237321 1.3360099600893327 0.0 
3
total: 403 i: 190 x: 249.5183225239719 y: 50.03280673046927 E: -1.3710476898858412
Li -3.0303768984099793 -0.6641842806227402 0.0 
H 2.778668920059482 -0.6641842806227402 0.0 
H 0.2517079783504963 1.3283685612454805 0.0 
3
total: 403 i: 191 x: 249.19155684902637 y: 50.84737642170044 E: -1.4978868026499026
Li -3.0251162976091805 -0.652118612485633 0.0 
H 2.7363083355772284 -0.652118612485633 0.0 
H 0.28880796203195125 1.3042372249712662 0.0 
3
total: 403 i: 192 x: 248.33349955129825 y: 53.12181669069194 E: -1.8763272451558883
Li -3.01254169533418 -0.6188963777787829 0.0 
H 2.6244908959436657 -0.6188963777787829 0.0 
H 0.3880507993905149 1.2377927555575656 0.0 
3
total: 403 i: 193 x: 247.31661017018206 y: 56.13994606283744 E: -2.426873401060003
Li -2.9994431814361 -0.5755087773706434 0.0 
H 2.4883122935973874 -0.5755087773706434 0.0 
H 0.5111308878387133 1.1510175547412866 0.0 
3
total: 403 i: 194 x: 246.36209044797872 y: 59.454461512897886 E: -3.0736730382243787
Li -2.98822985004785 -0.5282580949379897 0.0 
H 2.3513512657271813 -0.5282580949379897 0.0 
H 0.6368785843206699 1.0565161898759792 0.0 
3
total: 403 i: 195 x: 245.6877077480146 y: 62.30500349415757 E: -3.6324693768136727
Li -2.980315970494811 -0.48758913191895475 0.0 
H 2.2418426099914273 -0.48758913191895475 0.0 
H 0.7384733605033835 0.9751782638379096 0.0 
3
total: 403 i: 196 x: 245.22495857986746 y: 64.80638210925373 E: -4.091422683963585
Li -2.9742134541957324 -0.4516553778215138 0.0 
H 2.15080429640036 -0.4516553778215138 0.0 
H 0.8234091577953726 0.9033107556430278 0.0 
3
total: 403 i: 197 x: 244.901330937715 y: 67.4089932904593 E: -4.494403112997863
Li -2.9683596611870935 -0.4138422974563867 0.0 
H 2.060164044180683 -0.4138422974563867 0.0 
H 0.9081956170064105 0.8276845949127734 0.0 
3
total: 403 i: 198 x: 244.7957121491321 y: 70.23160227732694 E: -4.75628955343894
Li -2.9622199214130123 -0.37215818453336763 0.0 
H 1.9655883509073333 -0.37215818453336763 0.0 
H 0.9966315705056785 0.7443163690667352 0.0 
3
total: 403 i: 199 x: 244.95127461089493 y: 72.27132541346282 E: -4.73415896870982
Li -2.957658768619505 -0.34151512941514217 0.0 
H 1.8990081649319666 -0.34151512941514217 0.0 
H 1.0586506036875396 0.6830302588302843 0.0 
3
total: 403 i: 200 x: 245.33372987663847 y: 74.05044461934405 E: -4.470279981579609
Li -2.953362537326292 -0.31442387633857366 0.0 
H 1.8415973120201095 -0.31442387633857366 0.0 
H 1.1117652253061836 0.6288477526771474 0.0 
3
total: 403 i: 201 x: 245.97104388984422 y: 75.60739577043307 E: -3.949779163183095
Li -2.9490997566744874 -0.29050542131375356 0.0 
H 1.7912596986071612 -0.29050542131375356 0.0 
H 1.1578400580673276 0.5810108426275071 0.0 
3
total: 403 i: 202 x: 246.83653125438855 y: 76.86263519077826 E: -3.2375125460983805
Li -2.9449996837927785 -0.27123032535340835 0.0 
H 1.7498486179056623 -0.27123032535340835 0.0 
H 1.1951510658871167 0.5424606507068166 0.0 
3
total: 403 i: 203 x: 247.81787567066561 y: 77.7696610774119 E: -2.496707781729738
Li -2.941307432375749 -0.25752493287647255 0.0 
H 1.7185790264860796 -0.25752493287647255 0.0 
H 1.222728405889669 0.5150498657529452 0.0 
3
total: 403 i: 204 x: 248.78680317100833 y: 78.37318284528853 E: -1.8703037254515567
Li -2.9381590592700633 -0.24874825973795223 0.0 
H 1.6962563047062522 -0.24874825973795223 0.0 
H 1.241902754563812 0.49749651947590445 0.0 
3
total: 403 i: 205 x: 249.34506000106123 y: 78.63272271513169 E: -1.5631832658904405
Li -2.9364798405077064 -0.24516927408610337 0.0 
H 1.6858845600130836 -0.24516927408610337 0.0 
H 1.2505952804946228 0.4903385481722068 0.0 
3
total: 403 i: 206 x: 249.39588945269566 y: 78.65375288515071 E: -1.537242353918529
Li -2.9363305712374803 -0.24488781183533478 0.0 
H 1.68501179698882 -0.24488781183533478 0.0 
H 1.2513187742486602 0.4897756236706695 0.0 
3
total: 403 i: 207 x: 249.44277745475262 y: 78.67279547007158 E: -1.5136144509461316
Li -2.9361933522389414 -0.24463431353641943 0.0 
H 1.6842164257277714 -0.24463431353641943 0.0 
H 1.251976926511169 0.4892686270728389 0.0 
3
total: 403 i: 208 x: 249.57877276735178 y: 78.72613819627277 E: -1.44672255225939
Li -2.9357978338577113 -0.24393163923850755 0.0 
H 1.6819607378330343 -0.24393163923850755 0.0 
H 1.2538370960246765 0.48786327847701505 0.0 
3
total: 403 i: 209 x: 249.88214472998644 y: 78.83550701476345 E: -1.3063065353160856
Li -2.9349276919278875 -0.24253107142141409 0.0 
H 1.6771878096464654 -0.24253107142141409 0.0 
H 1.257739882281422 0.4850621428428282 0.0 
3
total: 403 i: 210 x: 250.27653573695875 y: 78.95937819773977 E: -1.1419483195383722
Li -2.9338180598414283 -0.24103084360482496 0.0 
H 1.6714684852870265 -0.24103084360482496 0.0 
H 1.2623495745544009 0.4820616872096499 0.0 
3
total: 403 i: 211 x: 250.97552403847976 y: 79.13401955927029 E: -0.9008318452895496
Li -2.9318973457792636 -0.23917048914127714 0.0 
H 1.6624929533681434 -0.23917048914127714 0.0 
H 1.269404392411119 0.4783409782825543 0.0 
3
total: 403 i: 212 x: 252.1771029069872 y: 79.32145838121247 E: -0.632265545392197
Li -2.9286783209475704 -0.23803122882255212 0.0 
H 1.6498520598302209 -0.23803122882255212 0.0 
H 1.2788262611173495 0.47606245764510424 0.0 
3
total: 403 i: 213 x: 252.2634645679199 y: 79.33011749140528 E: -0.6198269869813781
Li -2.928449082825054 -0.23803931252282506 0.0 
H 1.6490573602053091 -0.23803931252282506 0.0 
H 1.279391722619744 0.47607862504565013 0.0 
3
total: 403 i: 214 x: 252.34203047905316 y: 79.33747704322232 E: -0.6092872754400986
Li -2.928240652478698 -0.23805650791061447 0.0 
H 1.6483462542156802 -0.23805650791061447 0.0 
H 1.2798943982630182 0.4761130158212289 0.0 
3
total: 403 i: 215 x: 252.53847903938438 y: 79.35375912253345 E: -0.586140096613974
Li -2.9277198316702524 -0.2381399554457653 0.0 
H 1.64661630286556 -0.2381399554457653 0.0 
H 1.2811035288046932 0.47627991089153066 0.0 
3
total: 403 i: 216 x: 252.89795954176452 y: 79.37594877654345 E: -0.5554484747567804
Li -2.9267672192045127 -0.23843882174227635 0.0 
H 1.6436206761152632 -0.23843882174227635 0.0 
H 1.283146543089249 0.47687764348455264 0.0 
3
total: 403 i: 217 x: 253.445754966544 y: 79.39175379358889 E: -0.5367885897275446
Li -2.925313212380326 -0.23924472320378498 0.0 
H 1.6394476103060542 -0.23924472320378498 0.0 
H 1.2858656020742716 0.47848944640756996 0.0 
3
total: 403 i: 218 x: 254.44448808206906 y: 79.36849020562273 E: -0.5848326184052511
Li -2.922637782032087 -0.24174903551083685 0.0 
H 1.6329194574753751 -0.24174903551083685 0.0 
H 1.2897183245567128 0.48349807102167375 0.0 
3
total: 403 i: 219 x: 255.9216015490511 y: 79.22098532165329 E: -0.8278425122098906
Li -2.9185637702169758 -0.24777264030009347 0.0 
H 1.625434957996775 -0.24777264030009347 0.0 
H 1.293128812220202 0.4955452806001869 0.0 
3
total: 403 i: 220 x: 257.2736695107498 y: 78.9759151662778 E: -1.1967964994184415
Li -2.9146387475324596 -0.2556281007897454 0.0 
H 1.6204992315228108 -0.2556281007897454 0.0 
H 1.2941395160096483 0.5112562015794908 0.0 
3
total: 403 i: 221 x: 258.60950163374184 y: 78.63475932738962 E: -1.660976275137641
Li -2.9105036077553876 -0.26557167413238064 0.0 
H 1.6171863021038222 -0.26557167413238064 0.0 
H 1.2933173056515646 0.5311433482647612 0.0 
3
total: 403 i: 222 x: 260.1193621659128 y: 78.13264381011342 E: -2.2557639584682496
Li -2.905431801402608 -0.27945742942082435 0.0 
H 1.6151428358102957 -0.27945742942082435 0.0 
H 1.2902889655923127 0.5589148588416488 0.0 
3
total: 403 i: 223 x: 261.87022786120906 y: 77.39644030357874 E: -2.966573988325743
Li -2.8988849781846486 -0.299159561838421 0.0 
H 1.6148984363580805 -0.299159561838421 0.0 
H 1.2839865418265681 0.5983191236768421 0.0 
3
total: 403 i: 224 x: 263.37934419194715 y: 76.63013226413031 E: -3.538274489117557
Li -2.8925408443398095 -0.3193100065171084 0.0 
H 1.616467224179615 -0.3193100065171084 0.0 
H 1.276073620160195 0.6386200130342168 0.0 
3
total: 403 i: 225 x: 264.6090296216048 y: 75.9170916903741 E: -3.9452228987144746
Li -2.886806133562376 -0.33791854390988335 0.0 
H 1.6189596540562436 -0.33791854390988335 0.0 
H 1.2678464795061326 0.6758370878197668 0.0 
3
total: 403 i: 226 x: 265.77346297648813 y: 75.17075762663092 E: -4.26629663071977
Li -2.880845486129839 -0.3573422828119743 0.0 
H 1.6223352688090062 -0.3573422828119743 0.0 
H 1.2585102173208322 0.7146845656239484 0.0 
3
total: 403 i: 227 x: 267.2306635635945 y: 74.14403667882262 E: -4.567913905618242
Li -2.8725754781511803 -0.3840701951477202 0.0 
H 1.6279755579853843 -0.3840701951477202 0.0 
H 1.244599920165796 0.7681403902954405 0.0 
3
total: 403 i: 228 x: 268.76535476140924 y: 72.95975332897966 E: -4.759537609231682
Li -2.862784431763876 -0.415013622727193 0.0 
H 1.635654912895466 -0.415013622727193 0.0 
H 1.2271295188684115 0.830027245454386 0.0 
3
total: 403 i: 229 x: 270.39002081746327 y: 71.60444062345128 E: -4.825363867009461
Li -2.851083169553101 -0.45068769111506035 0.0 
H 1.6457724456020437 -0.45068769111506035 0.0 
H 1.2053107239510568 0.9013753822301207 0.0 
3
total: 403 i: 230 x: 272.12815489414567 y: 70.05817094976278 E: -4.756064879318392
Li -2.836897930417986 -0.49185465375453835 0.0 
H 1.6589001604011941 -0.49185465375453835 0.0 
H 1.1779977700167916 0.9837093075090768 0.0 
3
total: 403 i: 231 x: 273.99839642759935 y: 68.30937381654584 E: -4.551030788074461
Li -2.8195426713163116 -0.5391637077836826 0.0 
H 1.6757116648996386 -0.5391637077836826 0.0 
H 1.143831006416673 1.0783274155673652 0.0 
3
total: 403 i: 232 x: 275.89664901440574 y: 66.47388229937802 E: -4.242766095972763
Li -2.7995336916631834 -0.5898446833380363 0.0 
H 1.6956236099165536 -0.5898446833380363 0.0 
H 1.1039100817466303 1.1796893666760728 0.0 
3
total: 403 i: 233 x: 277.7626430504168 y: 64.63852780013171 E: -3.8753006003607773
Li -2.777341901064073 -0.6417486849959783 0.0 
H 1.7179614709860571 -0.6417486849959783 0.0 
H 1.0593804300780163 1.2834973699919567 0.0 
3
total: 403 i: 234 x: 279.6858140510996 y: 62.74168838227563 E: -3.4587900462705186
Li -2.7516701374844224 -0.6968679445448575 0.0 
H 1.7437705110159878 -0.6968679445448575 0.0 
H 1.0078996264684337 1.3937358890897147 0.0 
3
total: 403 i: 235 x: 281.8191093444907 y: 60.66014827780441 E: -2.982988619345645
Li -2.7196319081591676 -0.7593102823819219 0.0 
H 1.7755436524687336 -0.7593102823819219 0.0 
H 0.9440882556904335 1.5186205647638436 0.0 
3
total: 403 i: 236 x: 282.6342744439313 y: 59.8765642878459 E: -2.803620856056382
Li -2.7063431443948165 -0.7833968291447985 0.0 
H 1.7885089369781433 -0.7833968291447985 0.0 
H 0.9178342074166737 1.5667936582895972 0.0 
3
total: 403 i: 237 x: 283.4338683245363 y: 59.11620630634821 E: -2.631144457845876
Li -2.692720986907164 -0.8070922807569153 0.0 
H 1.801645811554931 -0.8070922807569153 0.0 
H 0.8910751753522339 1.6141845615138304 0.0 
3
total: 403 i: 238 x: 284.83000002678784 y: 57.811219293818894 E: -2.341323271230928
Li -2.667491034522177 -0.8485340431996152 0.0 
H 1.825528726038259 -0.8485340431996152 0.0 
H 0.8419623084839185 1.6970680863992302 0.0 
3
total: 403 i: 239 x: 286.55518401176994 y: 56.244155862543025 E: -2.0080753578334245
Li -2.6336536031836175 -0.8996517248721619 0.0 
H 1.8565744696719877 -0.8996517248721619 0.0 
H 0.7770791335116298 1.799303449744324 0.0 
3
total: 403 i: 240 x: 288.7046578315107 y: 54.37115345194397 E: -1.6371405841639801
Li -2.5871048169798896 -0.9627703581717623 0.0 
H 1.897329091232899 -0.9627703581717623 0.0 
H 0.689775725746991 1.9255407163435243 0.0 
3
total: 403 i: 241 x: 291.36443246910767 y: 52.186953741399776 E: -1.250019567308132
Li -2.522207021166752 -1.0391828344486982 0.0 
H 1.9502806259199468 -1.0391828344486982 0.0 
H 0.5719263952468054 2.078365668897396 0.0 
3
total: 403 i: 242 x: 294.399434475652 y: 49.883911183283985 E: -0.9039899323719823
Li -2.437381473760372 -1.1227612172823334 0.0 
H 2.012899557837853 -1.1227612172823334 0.0 
H 0.42448191592252016 2.2455224345646663 0.0 
3
total: 403 i: 243 x: 297.46945847320285 y: 47.7593810480933 E: -0.6481196278603124
Li -2.3389278814350787 -1.2018035719456313 0.0 
H 2.0771824186836882 -1.2018035719456313 0.0 
H 0.26174546275139043 2.4036071438912625 0.0 
3
total: 403 i: 244 x: 300.64835573130443 y: 45.76585323500618 E: -0.46438527021113946
Li -2.222889117253954 -1.2761874759972063 0.0 
H 2.1435577698957498 -1.2761874759972063 0.0 
H 0.0793313473582038 2.5523749519944126 0.0 
3
total: 403 i: 245 x: 303.5193143993779 y: 44.129729617444376 E: -0.35075249421974414
Li -2.1056973550695 -1.3356628822372596 0.0 
H 2.2030644894294253 -1.3356628822372596 0.0 
H -0.09736713435992472 2.6713257644745196 0.0 
3
total: 403 i: 246 x: 306.24070700474476 y: 42.70598096193838 E: -0.274350060243785
Li -1.9841785960532905 -1.384528343721849 0.0 
H 2.2596900784196627 -1.384528343721849 0.0 
H -0.2755114823663716 2.7690566874436984 0.0 
3
total: 403 i: 247 x: 308.78663684601815 y: 41.47098734668645 E: -0.22097501446652024
Li -1.862011026317437 -1.4231887740823037 0.0 
H 2.3141275814781084 -1.4231887740823037 0.0 
H -0.4521165551606716 2.8463775481646074 0.0 
3
total: 403 i: 248 x: 310.42840563715305 y: 40.71739121193438 E: -0.1927092059531069
Li -1.7793026024688672 -1.4443773734744951 0.0 
H 2.350873553326857 -1.4443773734744951 0.0 
H -0.5715709508579896 2.8887547469489903 0.0 
3
total: 403 i: 249 x: 312.054062659848 y: 39.999510148217915 E: -0.16798785130841193
Li -1.6946979568435268 -1.462415811991549 0.0 
H 2.3893365845360304 -1.462415811991549 0.0 
H -0.6946386276925032 2.9248316239830983 0.0 
3
total: 403 i: 250 x: 313.4726847242374 y: 39.39273027431573 E: -0.1483885657186346
Li -1.6189044086237978 -1.475743362807419 0.0 
H 2.4252796398665453 -1.475743362807419 0.0 
H -0.806375231242747 2.9514867256148376 0.0 
3
total: 403 i: 251 x: 314.8132675867427 y: 38.83324783024374 E: -0.13120935192300917
Li -1.5458038244336165 -1.4862573018091494 0.0 
H 2.461968407225325 -1.4862573018091494 0.0 
H -0.9161645827917086 2.972514603618299 0.0 
3
total: 403 i: 252 x: 316.5360520949818 y: 38.12928649590824 E: -0.11085110165237509
Li -1.4500777524202408 -1.4967777976573393 0.0 
H 2.5142524702318374 -1.4967777976573393 0.0 
H -1.0641747178115972 2.993555595314679 0.0 
3
total: 403 i: 253 x: 318.75773714669793 y: 37.23522051838079 E: -0.08779543250713606
Li -1.3243572827582129 -1.5052865591667908 0.0 
H 2.5933537538501117 -1.5052865591667908 0.0 
H -1.2689964710918988 3.010573118333581 0.0 
3
total: 403 i: 254 x: 320.99230657866474 y: 36.33302136442465 E: -0.06975405902899377
Li -1.1963731917822231 -1.5077756245812586 0.0 
H 2.691707778345121 -1.5077756245812586 0.0 
H -1.4953345865628975 3.0155512491625176 0.0 
3
total: 403 i: 255 x: 322.8293879114612 y: 35.571316338484365 E: -0.06037954134653437
Li -1.0910080232747223 -1.5046627781797712 0.0 
H 2.792162599332644 -1.5046627781797712 0.0 
H -1.7011545760579214 3.009325556359543 0.0 
3
total: 403 i: 256 x: 324.24786895983294 y: 34.96007845644114 E: -0.05691460148749174
Li -1.0103410707556717 -1.4984669680414233 0.0 
H 2.885344466989771 -1.4984669680414233 0.0 
H -1.8750033962340993 2.996933936082846 0.0 
3
total: 403 i: 257 x: 325.61886944632676 y: 34.34335204416594 E: -0.05622161909627078
Li -0.9338142096918048 -1.4887952425839224 0.0 
H 2.9910479626218325 -1.4887952425839224 0.0 
H -2.0572337529300273 2.9775904851678447 0.0 
3
total: 403 i: 258 x: 327.31039253688056 y: 33.54125821804858 E: -0.05810580444037692
Li -0.8430762153107079 -1.4712388624723987 0.0 
H 3.1464235195299315 -1.4712388624723987 0.0 
H -2.3033473042192236 2.942477724944797 0.0 
3
total: 403 i: 259 x: 329.18280462952526 y: 32.59932435971317 E: -0.062128306008711054
Li -0.7505346853125962 -1.4438655151621276 0.0 
H 3.3552586170806977 -1.4438655151621276 0.0 
H -2.6047239317681012 2.8877310303242547 0.0 
3
total: 403 i: 260 x: 330.99178782733225 y: 31.647304269790542 E: -0.06488526425999734
Li -0.6727139083787775 -1.4091154471442702 0.0 
H 3.5963115852299596 -1.4091154471442702 0.0 
H -2.9235976768511818 2.818230894288541 0.0 
3
total: 403 i: 261 x: 332.7041300680288 y: 30.730410632974273 E: -0.06327376371120243
Li -0.6123503815285272 -1.3687881353967326 0.0 
H 3.8588711391921056 -1.3687881353967326 0.0 
H -3.2465207576635784 2.7375762707934657 0.0 
3
total: 403 i: 262 x: 334.3656967832382 y: 29.845968668862987 E: -0.056031532597732685
Li -0.5678082277055868 -1.3229931801297339 0.0 
H 4.142929784025958 -1.3229931801297339 0.0 
H -3.575121556320371 2.6459863602594673 0.0 
3
total: 403 i: 263 x: 335.9735648483182 y: 28.9978482125614 E: -0.043658365096276845
Li -0.5395692690009722 -1.2724265269675623 0.0 
H 4.445831988376646 -1.2724265269675623 0.0 
H -3.906262719375674 2.5448530539351246 0.0 
3
total: 403 i: 264 x: 337.44413202083354 y: 28.201736651338905 E: -0.028237315882042938
Li -0.5306321748382702 -1.220223570121371 0.0 
H 4.757126277126124 -1.220223570121371 0.0 
H -4.2264941022878535 2.4404471402427426 0.0 
3
total: 403 i: 265 x: 338.6388931120037 y: 27.468020692646007 E: -0.012377810293344524
Li -0.5451709660879634 -1.172169716609779 0.0 
H 5.06253877052463 -1.172169716609779 0.0 
H -4.517367804436666 2.3443394332195577 0.0 
3
total: 403 i: 266 x: 339.403924683967 y: 26.798059087396165 E: 0.0018376880763348322
Li -0.5867510050313175 -1.135552152192614 0.0 
H 5.347259797259881 -1.135552152192614 0.0 
H -4.760508792228563 2.2711043043852284 0.0 
3
total: 403 i: 267 x: 339.6336051459461 y: 26.24788061935121 E: 0.01220379833147271
Li -0.6475699588673983 -1.1171880775775351 0.0 
H 5.574725493996514 -1.1171880775775351 0.0 
H -4.927155535129116 2.2343761551550703 0.0 
3
total: 403 i: 268 x: 339.29155911833465 y: 25.610276229721023 E: 0.021805925661605323
Li -0.7523988249383177 -1.1145862117250318 0.0 
H 5.8172189983060765 -1.1145862117250318 0.0 
H -5.064820173367759 2.2291724234500636 0.0 
3
total: 403 i: 269 x: 338.40270411813526 y: 25.049523140858515 E: 0.027491132779870767
Li -0.873908833993711 -1.1286009547089246 0.0 
H 6.001528217750557 -1.1286009547089246 0.0 
H -5.127619383756845 2.257201909417849 0.0 
3
total: 403 i: 270 x: 336.8071865815867 y: 24.41570868671365 E: 0.030265441226822593
Li -1.0369022193877278 -1.1560749599730962 0.0 
H 6.170876739516895 -1.1560749599730962 0.0 
H -5.1339745201291676 2.312149919946192 0.0 
3
total: 403 i: 271 x: 333.96213707618216 y: 23.56193402043918 E: 0.02813942901455103
Li -1.2793425877287508 -1.1955134982401312 0.0 
H 6.3367479629788654 -1.1955134982401312 0.0 
H -5.057405375250115 2.391026996480263 0.0 
3
total: 403 i: 272 x: 331.9012496163057 y: 23.018615273393664 E: 0.023914825399829767
Li -1.4368353525344733 -1.2149032291568795 0.0 
H 6.412258020229055 -1.2149032291568795 0.0 
H -4.975422667694581 2.4298064583137595 0.0 
3
total: 403 i: 273 x: 329.50214763524104 y: 22.421198823604463 E: 0.017401826508000273
Li -1.6071848407498759 -1.2285863153077452 0.0 
H 6.475555699081153 -1.2285863153077452 0.0 
H -4.868370858331278 2.4571726306154904 0.0 
3
total: 403 i: 274 x: 326.4157848741676 y: 21.688455294241948 E: 0.00795269085993869
Li -1.8090924193284028 -1.2345857593946348 0.0 
H 6.5331769158803095 -1.2345857593946348 0.0 
H -4.724084496551907 2.4691715187892695 0.0 
3
total: 403 i: 275 x: 323.8861701156082 y: 21.11605319769354 E: 0.000630353553594601
Li -1.9615810103090972 -1.2322462356700294 0.0 
H 6.567854279076106 -1.2322462356700294 0.0 
H -4.6062732687670085 2.4644924713400584 0.0 
3
total: 403 i: 276 x: 321.40141424509096 y: 20.584199018428226 E: -0.005015450118164595
Li -2.100906957111724 -1.225844258463774 0.0 
H 6.5949577437675675 -1.225844258463774 0.0 
H -4.494050786655843 2.4516885169275486 0.0 
3
total: 403 i: 277 x: 318.98344486565844 y: 20.104313354326475 E: -0.008166447209673229
Li -2.2273616967824963 -1.2176333842345093 0.0 
H 6.617076428663399 -1.2176333842345093 0.0 
H -4.389714731880903 2.4352667684690186 0.0 
3
total: 403 i: 278 x: 316.35802694204597 y: 19.637768427918058 E: -0.008435760556581707
Li -2.3555379356383415 -1.208559694083627 0.0 
H 6.638255109345705 -1.208559694083627 0.0 
H -4.282717173707365 2.4171193881672535 0.0 
3
total: 403 i: 279 x: 313.8008214126293 y: 19.252113569000134 E: -0.005705094178024429
Li -2.4725086072725166 -1.201484303020642 0.0 
H 6.65745748310459 -1.201484303020642 0.0 
H -4.184948875832074 2.4029686060412843 0.0 
3
total: 403 i: 280 x: 311.30834139434205 y: 18.95618840652875 E: -0.0011147841559220636
Li -2.5804509265357436 -1.1979535147167348 0.0 
H 6.675815415521079 -1.1979535147167348 0.0 
H -4.095364488985334 2.3959070294334692 0.0 
3
total: 403 i: 281 x: 308.9585427165319 y: 18.762928418938447 E: 0.0036221190601108005
Li -2.6781601290250214 -1.1990255074112042 0.0 
H 6.693435265874662 -1.1990255074112042 0.0 
H -4.015275136849641 2.398051014822408 0.0 
3
total: 403 i: 282 x: 306.669535875681 y: 18.66720102423945 E: 0.007225400091666382
Li -2.771053668902064 -1.2053108946932396 0.0 
H 6.711312321594967 -1.2053108946932396 0.0 
H -3.940258652692904 2.4106217893864796 0.0 
3
total: 403 i: 283 x: 304.39922960155894 y: 18.674547547744265 E: 0.008688968805095428
Li -2.8626002911532744 -1.2176440824672736 0.0 
H 6.730028475821319 -1.2176440824672736 0.0 
H -3.867428184668045 2.435288164934547 0.0 
3
total: 403 i: 284 x: 302.14113120545215 y: 18.794474849950248 E: 0.007531014820423995
Li -2.9549299755335547 -1.236787364633057 0.0 
H 6.749817652881941 -1.236787364633057 0.0 
H -3.7948876773483846 2.4735747292661134 0.0 
3
total: 403 i: 285 x: 299.8962324567755 y: 19.03513904291027 E: 0.004124995182830096
Li -3.050063575629144 -1.263246482628706 0.0 
H 6.770781839063625 -1.263246482628706 0.0 
H -3.720718263434481 2.526492965257412 0.0 
3
total: 403 i: 286 x: 297.66408193267364 y: 19.40115434531899 E: -0.0002630577165320979
Li -3.150205388228708 -1.297132467934591 0.0 
H 6.792978087239971 -1.297132467934591 0.0 
H -3.642772699011262 2.594264935869182 0.0 
3
total: 403 i: 287 x: 295.647082278889 y: 19.840812251079043 E: -0.003559989266046961
Li -3.2473076847315827 -1.3339075005196352 0.0 
H 6.814227176597317 -1.3339075005196352 0.0 
H -3.566919491865734 2.66781500103927 0.0 
3
total: 403 i: 288 x: 293.3954933124753 y: 20.444320560203362 E: -0.004784739107368112
Li -3.3648339108924374 -1.3805739833978559 0.0 
H 6.839319349348644 -1.3805739833978559 0.0 
H -3.474485438456208 2.761147966795712 0.0 
3
total: 403 i: 289 x: 291.1247519955039 y: 21.14961288211463 E: -0.0023526332463765396
Li -3.493985595287499 -1.4310849694902446 0.0 
H 6.866172634413644 -1.4310849694902446 0.0 
H -3.372187039126146 2.8621699389804887 0.0 
3
total: 403 i: 290 x: 288.76423074962725 y: 21.94459444941559 E: 0.003840237858617787
Li -3.638839639953492 -1.4833282320013066 0.0 
H 6.895929794343598 -1.4833282320013066 0.0 
H -3.257090154390106 2.9666564640026136 0.0 
3
total: 403 i: 291 x: 286.3039752795726 y: 22.78652873395812 E: 0.012720501472196352
Li -3.7984653518364815 -1.5328156862382738 0.0 
H 6.92928192416492 -1.5328156862382738 0.0 
H -3.1308165723284387 3.065631372476548 0.0 
3
total: 403 i: 292 x: 283.6878345573302 y: 23.64032255582089 E: 0.02275818452817165
Li -3.973046082520652 -1.5755406261179852 0.0 
H 6.96780462246428 -1.5755406261179852 0.0 
H -2.9947585399436263 3.1510812522359704 0.0 
3
total: 403 i: 293 x: 281.00010035984246 y: 24.429494770651985 E: 0.03208048939530075
Li -4.152081524420223 -1.606209015121797 0.0 
H 7.011031999355388 -1.606209015121797 0.0 
H -2.8589504749351637 3.212418030243594 0.0 
3
total: 403 i: 294 x: 277.8863656894334 y: 25.202275031884984 E: 0.040710822787894105
Li -4.353080548493261 -1.624384581114679 0.0 
H 7.065919243319031 -1.624384581114679 0.0 
H -2.712838694825768 3.248769162229358 0.0 
3
total: 403 i: 295 x: 274.44969380552686 y: 25.86750549840724 E: 0.04743964954563309
Li -4.561686835996363 -1.6246172825967504 0.0 
H 7.132303662205923 -1.6246172825967504 0.0 
H -2.5706168262095623 3.2492345651935013 0.0 
3
total: 403 i: 296 x: 270.7682999245896 y: 26.36712721919634 E: 0.05183409300556007
Li -4.7663129294660935 -1.6054618001461283 0.0 
H 7.209568556543878 -1.6054618001461283 0.0 
H -2.4432556270777845 3.210923600292257 0.0 
3
total: 403 i: 297 x: 264.700729941947 y: 26.747764624993447 E: 0.0540999974098856
Li -5.058449503909884 -1.540684515853602 0.0 
H 7.348703585720033 -1.540684515853602 0.0 
H -2.290254081810148 3.0813690317072036 0.0 
3
total: 403 i: 298 x: 257.76429622834826 y: 26.57820666910097 E: 0.05077379514933632
Li -5.326558672013192 -1.431976361078486 0.0 
H 7.522348497945661 -1.431976361078486 0.0 
H -2.1957898259324695 2.863952722156972 0.0 
3
total: 403 i: 299 x: 255.60162181126924 y: 26.40444224987836 E: 0.04861216521120282
Li -5.396925834285024 -1.3928303423451434 0.0 
H 7.579222124691525 -1.3928303423451434 0.0 
H -2.1822962904065015 2.7856606846902867 0.0 
3
total: 403 i: 300 x: 252.9968775385051 y: 26.122908240272352 E: 0.04532999481855558
Li -5.473946824848302 -1.343173670039948 0.0 
H 7.649342017005627 -1.343173670039948 0.0 
H -2.1753951921573247 2.6863473400798954 0.0 
3
total: 403 i: 301 x: 248.97801908833267 y: 25.53886946102268 E: 0.03883576502028859
Li -5.577176108094105 -1.2621513597968155 0.0 
H 7.761000542482608 -1.2621513597968155 0.0 
H -2.183824434388502 2.5243027195936314 0.0 
3
total: 403 i: 302 x: 243.66118252513746 y: 24.499379398601516 E: 0.02774229758166952
Li -5.68701946332484 -1.1487106558737985 0.0 
H 7.915580444905596 -1.1487106558737985 0.0 
H -2.2285609815807557 2.2974213117475974 0.0 
3
total: 403 i: 303 x: 239.14095650768925 y: 23.39102157861729 E: 0.016686400714219948
Li -5.759051292906489 -1.0483500692795962 0.0 
H 8.054131098856615 -1.0483500692795962 0.0 
H -2.2950798059501256 2.096700138559192 0.0 
3
total: 403 i: 304 x: 235.320847662385 y: 22.308227297427457 E: 0.007404692847500991
Li -5.8069279197399135 -0.9618397594944191 0.0 
H 8.177701351514028 -0.9618397594944191 0.0 
H -2.370773431774114 1.923679518988838 0.0 
3
total: 403 i: 305 x: 232.03960794973278 y: 21.28647580402071 E: 0.0011232350863797447
Li -5.840782039258275 -0.8870890308017981 0.0 
H 8.290229771918767 -0.8870890308017981 0.0 
H -2.4494477326604946 1.7741780616035965 0.0 
3
total: 403 i: 306 x: 229.2933293494231 y: 20.380823471915537 E: -0.001306278676193206
Li -5.866336898270661 -0.824857235025355 0.0 
H 8.390945843951854 -0.824857235025355 0.0 
H -2.5246089456811935 1.6497144700507103 0.0 
3
total: 403 i: 307 x: 227.04056472018587 y: 19.61672328581428 E: -0.00019457350161379807
Li -5.888036529384633 -0.7745960871108015 0.0 
H 8.480467119350951 -0.7745960871108015 0.0 
H -2.592430589966316 1.549192174221603 0.0 
3
total: 403 i: 308 x: 225.042796882747 y: 18.93686329650635 E: 0.003771526269508985
Li -5.911475489008297 -0.7312501943982345 0.0 
H 8.568838996120938 -0.7312501943982345 0.0 
H -2.6573635071126414 1.4625003887964687 0.0 
3
total: 403 i: 309 x: 223.45997155768447 y: 18.41136618032337 E: 0.008798115845431134
Li -5.938126458426074 -0.698515477919223 0.0 
H 8.650799795734013 -0.698515477919223 0.0 
H -2.712673337307941 1.3970309558384462 0.0 
3
total: 403 i: 310 x: 222.3022683690389 y: 18.052217952896772 E: 0.01269371422719191
Li -5.970542897398982 -0.6766352507518539 0.0 
H 8.727422654935491 -0.6766352507518539 0.0 
H -2.756879757536509 1.3532705015037076 0.0 
3
total: 403 i: 311 x: 221.60254678331972 y: 17.87164321374997 E: 0.013649335718196131
Li -6.010285242981336 -0.6662633713248306 0.0 
H 8.798789716759694 -0.6662633713248306 0.0 
H -2.788504473778358 1.332526742649661 0.0 
3
total: 403 i: 312 x: 221.3755377342621 y: 17.868856834934455 E: 0.011217982734633971
Li -6.058128101681177 -0.6676416902228183 0.0 
H 8.865523619226321 -0.6676416902228183 0.0 
H -2.8073955175451446 1.3352833804456368 0.0 
3
total: 403 i: 313 x: 221.61756141390313 y: 18.03156327671108 E: 0.00653477491000369
Li -6.114355905356579 -0.6806975954264262 0.0 
H 8.929156292088463 -0.6806975954264262 0.0 
H -2.814800386731885 1.361395190852852 0.0 
3
total: 403 i: 314 x: 222.3166542002106 y: 18.339670388826338 E: 0.001752441154154754
Li -6.17875879211881 -0.7052756247525509 0.0 
H 8.991811560922406 -0.7052756247525509 0.0 
H -2.813052768803597 1.4105512495051018 0.0 
3
total: 403 i: 315 x: 223.45475192008456 y: 18.765205545967355 E: -0.0008705334087989284
Li -6.250512503483339 -0.741128963468205 0.0 
H 9.056046856182178 -0.741128963468205 0.0 
H -2.805534352698838 1.48225792693641 0.0 
3
total: 403 i: 316 x: 225.01022611126132 y: 19.27244791676633 E: 0.00015903217549706502
Li -6.328272082840385 -0.7879217636555778 0.0 
H 9.124979334512382 -0.7879217636555778 0.0 
H -2.796707251671996 1.5758435273111555 0.0 
3
total: 403 i: 317 x: 226.9569922408356 y: 19.817499807902585 E: 0.005121007624291859
Li -6.4100618495269925 -0.8451139454048237 0.0 
H 9.20217899562699 -0.8451139454048237 0.0 
H -2.7921171460999985 1.690227890809647 0.0 
3
total: 403 i: 318 x: 229.26710100975288 y: 20.350422603518716 E: 0.013185571381696432
Li -6.493427946373855 -0.9119590241688854 0.0 
H 9.291725169881317 -0.9119590241688854 0.0 
H -2.798297223507463 1.8239180483377706 0.0 
3
total: 403 i: 319 x: 231.55423284097807 y: 20.763278481191776 E: 0.02163288996078944
Li -6.565136365281681 -0.9773060252587737 0.0 
H 9.383360351946424 -0.9773060252587737 0.0 
H -2.818223986664741 1.9546120505175475 0.0 
3
total: 403 i: 320 x: 234.0001379892754 y: 21.082400050361954 E: 0.03011904246057051
Li -6.631807867792847 -1.04620272507921 0.0 
H 9.487679342571202 -1.04620272507921 0.0 
H -2.8558714747783567 2.09240545015842 0.0 
3
total: 403 i: 321 x: 237.37416831709328 y: 21.31949903376207 E: 0.040058821503701464
Li -6.708324416699913 -1.1390079350878994 0.0 
H 9.645767176998152 -1.1390079350878994 0.0 
H -2.93744276029824 2.278015870175799 0.0 
3
total: 403 i: 322 x: 241.09416432108833 y: 21.312536701096402 E: 0.048251239513135764
Li -6.772554955282202 -1.236816338055555 0.0 
H 9.842747762415446 -1.236816338055555 0.0 
H -3.070192807133244 2.4736326761111096 0.0 
3
total: 403 i: 323 x: 245.37058852010443 y: 20.962048333161963 E: 0.05400793961632764
Li -6.819587562154041 -1.3398639312500336 0.0 
H 10.102323066286854 -1.3398639312500336 0.0 
H -3.282735504132813 2.6797278625000667 0.0 
3
total: 403 i: 324 x: 250.42521317718774 y: 20.086925093112157 E: 0.05561033560807729
Li -6.8355918558914235 -1.4404953320777116 0.0 
H 10.457255890850167 -1.4404953320777116 0.0 
H -3.6216640349587426 2.8809906641554237 0.0 
3
total: 403 i: 325 x: 254.06877094984614 y: 19.164000298386554 E: 0.05287050778277277
Li -6.819011643758837 -1.4916263974450168 0.0 
H 10.743400310223588 -1.4916263974450168 0.0 
H -3.9243886664647545 2.983252794890034 0.0 
3
total: 403 i: 326 x: 257.6859696288296 y: 18.036699047639285 E: 0.046371649472215996
Li -6.77960378891938 -1.5184653859062152 0.0 
H 11.046506675740083 -1.5184653859062152 0.0 
H -4.266902886820706 3.03693077181243 0.0 
3
total: 403 i: 327 x: 261.4769380797005 y: 16.687147146343275 E: 0.035144296366881295
Li -6.717148931582265 -1.5166402184480647 0.0 
H 11.373275066450041 -1.5166402184480647 0.0 
H -4.656126134867778 3.0332804368961295 0.0 
3
total: 403 i: 328 x: 264.2586798944313 y: 15.641756446717185 E: 0.024485597036243253
Li -6.661725972796419 -1.4956785789338287 0.0 
H 11.609655303170566 -1.4956785789338287 0.0 
H -4.947929330374144 2.9913571578676574 0.0 
3
total: 403 i: 329 x: 266.76026568979665 y: 14.708669477416313 E: 0.014395939827438966
Li -6.608749761471574 -1.46496819740135 0.0 
H 11.813189522776174 -1.46496819740135 0.0 
H -5.204439761304602 2.9299363948026995 0.0 
3
total: 403 i: 330 x: 269.0753236270162 y: 13.888281329664576 E: 0.006278238848804895
Li -6.559962042815524 -1.4298439377375252 0.0 
H 11.989931913809215 -1.4298439377375252 0.0 
H -5.42996987099369 2.8596878754750508 0.0 
3
total: 403 i: 331 x: 271.227510447664 y: 13.190206970129744 E: 0.0012590151645070742
Li -6.51672450035484 -1.3947447576891434 0.0 
H 12.142232265939473 -1.3947447576891434 0.0 
H -5.625507765584631 2.7894895153782864 0.0 
3
total: 403 i: 332 x: 273.22143449097643 y: 12.6158422382548 E: -0.0004362854853003899
Li -6.479463522677079 -1.3628061806411365 0.0 
H 12.27253436115716 -1.3628061806411365 0.0 
H -5.79307083848008 2.7256123612822725 0.0 
3
total: 403 i: 333 x: 275.0931560563788 y: 12.148389890880692 E: 0.0005598804322800269
Li -6.447246299305809 -1.3351910126953597 0.0 
H 12.385820693146322 -1.3351910126953597 0.0 
H -5.938574393840515 2.67038202539072 0.0 
3
total: 403 i: 334 x: 277.11021652443463 y: 11.725770485762926 E: 0.0037343959723634395
Li -6.41542239324231 -1.3094400284552064 0.0 
H 12.499176664144347 -1.3094400284552064 0.0 
H -6.083754270902036 2.618880056910413 0.0 
3
total: 403 i: 335 x: 279.23328653055006 y: 11.370754250829314 E: 0.008095412986529093
Li -6.384723497537297 -1.2878592857578368 0.0 
H 12.610332527904607 -1.2878592857578368 0.0 
H -6.225609030367312 2.575718571515674 0.0 
3
total: 403 i: 336 x: 281.5101389890141 y: 11.086930821640177 E: 0.01220482045686145
Li -6.354222563577043 -1.2716118566954508 0.0 
H 12.722405914239328 -1.2716118566954508 0.0 
H -6.368183350662285 2.543223713390902 0.0 
3
total: 403 i: 337 x: 283.934204688963 y: 10.885552341820846 E: 0.014372799729689393
Li -6.3234867364979905 -1.2622739277904467 0.0 
H 12.836200273457806 -1.2622739277904467 0.0 
H -6.512713536959816 2.5245478555808933 0.0 
3
total: 403 i: 338 x: 286.4733813112507 y: 10.773622048148967 E: 0.013511084745269316
Li -6.292065051958095 -1.2609308072132912 0.0 
H 12.952119927176572 -1.2609308072132912 0.0 
H -6.660054875218475 2.521861614426582 0.0 
3
total: 403 i: 339 x: 289.0979389321 y: 10.750028747424427 E: 0.009852804322780743
Li -6.25927958162383 -1.267823081926702 0.0 
H 13.071302531776233 -1.267823081926702 0.0 
H -6.812022950152402 2.5356461638534045 0.0 
3
total: 403 i: 340 x: 291.78728594483573 y: 10.807402316997349 E: 0.0049226161925359
Li -6.224347102252629 -1.2824440506732464 0.0 
H 13.195596454757045 -1.2824440506732464 0.0 
H -6.971249352504417 2.564888101346493 0.0 
3
total: 403 i: 341 x: 294.5238763265091 y: 10.9339685612472 E: 0.0008891938633220145
Li -6.186618924830828 -1.3036364336139084 0.0 
H 13.327067593113409 -1.3036364336139084 0.0 
H -7.140448668282581 2.6072728672278167 0.0 
3
total: 403 i: 342 x: 297.2925011657487 y: 11.114437837898178 E: -0.00032776840614647126
Li -6.145727737006993 -1.3296378889239506 0.0 
H 13.467823939839349 -1.3296378889239506 0.0 
H -7.3220962028323555 2.6592757778479017 0.0 
3
total: 403 i: 343 x: 300.0847477330649 y: 11.331202733812672 E: 0.002242229427221608
Li -6.101634925834307 -1.3581809907648352 0.0 
H 13.620152042448225 -1.3581809907648352 0.0 
H -7.518517116613921 2.71636198152967 0.0 
3
total: 403 i: 344 x: 302.90492584747244 y: 11.565881916743724 E: 0.008443480037142275
Li -6.05461208879117 -1.386622490863595 0.0 
H 13.786882590625318 -1.386622490863595 0.0 
H -7.73227050183415 2.7732449817271894 0.0 
3
total: 403 i: 345 x: 305.7916738466163 y: 11.801591795415312 E: 0.01736852408109474
Li -6.004947633425906 -1.4120917591870932 0.0 
H 13.973056078053183 -1.4120917591870932 0.0 
H -7.968108444627277 2.824183518374187 0.0 
3
total: 403 i: 346 x: 308.72481751200894 y: 12.014844076367787 E: 0.027520579743939334
Li -5.954762777520741 -1.4305107150137488 0.0 
H 14.180015036213156 -1.4305107150137488 0.0 
H -8.225252258692416 2.861021430027498 0.0 
3
total: 403 i: 347 x: 311.7007427675641 y: 12.182467414961641 E: 0.03744223110474611
Li -5.9069956590228605 -1.4374818694161187 0.0 
H 14.40940012061207 -1.4374818694161187 0.0 
H -8.502404461589212 2.8749637388322373 0.0 
3
total: 403 i: 348 x: 313.4682625810913 y: 12.250140358034026 E: 0.04268708538107589
Li -5.881707856466726 -1.4343420002991605 0.0 
H 14.554973617047658 -1.4343420002991605 0.0 
H -8.673265760580932 2.8686840005983205 0.0 
3
total: 403 i: 349 x: 315.0028787206146 y: 12.285476575999544 E: 0.04668468666873338
Li -5.862586901359033 -1.4263927507526788 0.0 
H 14.686844816565724 -1.4263927507526788 0.0 
H -8.824257915206694 2.852785501505358 0.0 
3
total: 403 i: 350 x: 317.7286238176548 y: 12.28553019316775 E: 0.05224618309629545
Li -5.837720493753707 -1.398584581999666 0.0 
H 14.932753080210599 -1.398584581999666 0.0 
H -9.095032586456892 2.7971691639993326 0.0 
3
total: 403 i: 351 x: 320.7681765610646 y: 12.174007855725227 E: 0.055699981007516254
Li -5.829444749313988 -1.3440843135185032 0.0 
H 15.221910307978952 -1.3440843135185032 0.0 
H -9.392465558664966 2.6881686270370064 0.0 
3
total: 403 i: 352 x: 322.80472327303704 y: 12.021902762285402 E: 0.056078823560273126
Li -5.839732376414832 -1.2922200108894908 0.0 
H 15.422037387500971 -1.2922200108894908 0.0 
H -9.582305011086138 2.584440021778981 0.0 
3
total: 403 i: 353 x: 324.6969395964234 y: 11.81617140735012 E: 0.05473835587744536
Li -5.8641156893504665 -1.232283721186757 0.0 
H 15.610596668680888 -1.232283721186757 0.0 
H -9.74648097933042 2.4645674423735136 0.0 
3
total: 403 i: 354 x: 327.47338342240283 y: 11.381811116621265 E: 0.04895685063987826
Li -5.933301647658162 -1.1230350453304714 0.0 
H 15.888270055305256 -1.1230350453304714 0.0 
H -9.954968407647094 2.2460700906609423 0.0 
3
total: 403 i: 355 x: 329.5113349411955 y: 10.937959818316319 E: 0.040713671979772735
Li -6.017735822242259 -1.0260164910507934 0.0 
H 16.090895990991793 -1.0260164910507934 0.0 
H -10.073160168749531 2.0520329821015864 0.0 
3
total: 403 i: 356 x: 331.05650364285265 y: 10.504974942666571 E: 0.031232154814568973
Li -6.108699915154418 -0.9419515571549 0.0 
H 16.24450117644912 -0.9419515571549 0.0 
H -10.1358012612947 1.8839031143098 0.0 
3
total: 403 i: 357 x: 332.23956221281003 y: 10.090215949110949 E: 0.021479777353295166
Li -6.201957845952097 -0.8699083162044833 0.0 
H 16.36494186064224 -0.8699083162044833 0.0 
H -10.162984014690146 1.7398166324089668 0.0 
3
total: 403 i: 358 x: 333.1199376055855 y: 9.70351838258171 E: 0.012597967230465952
Li -6.293718438426109 -0.8097257083804824 0.0 
H 16.461008523971696 -0.8097257083804824 0.0 
H -10.167290085545586 1.6194514167609646 0.0 
3
total: 403 i: 359 x: 333.7431032710632 y: 9.349692071478975 E: 0.005601137728385276
Li -6.381904277409336 -0.7605066558259317 0.0 
H 16.53975553903593 -0.7605066558259317 0.0 
H -10.157851261626597 1.5210133116518634 0.0 
3
total: 403 i: 360 x: 334.14148055776093 y: 9.030851202619298 E: 0.0012253147326725413
Li -6.465551848264199 -0.7212018973072216 0.0 
H 16.60666181828518 -0.7212018973072216 0.0 
H -10.141109970020977 1.4424037946144432 0.0 
3
total: 403 i: 361 x: 334.34481920089956 y: 8.719604377394804 E: -0.00017493445702669206
Li -6.5525952792188304 -0.68815082467149 0.0 
H 16.672085737774324 -0.68815082467149 0.0 
H -10.119490458555497 1.37630164934298 0.0 
3
total: 403 i: 362 x: 334.31254611112576 y: 8.459175239168387 E: 0.0017307842355195752
Li -6.6321231550000235 -0.6657869664983859 0.0 
H 16.73147912137478 -0.6657869664983859 0.0 
H -10.099355966374757 1.331573932996772 0.0 
3
total: 403 i: 363 x: 334.0595367971143 y: 8.25065495031003 E: 0.005794934774958535
Li -6.7042792771835495 -0.6533680811133867 0.0 
H 16.788239736171498 -0.6533680811133867 0.0 
H -10.083960458987946 1.3067361622267732 0.0 
3
total: 403 i: 364 x: 333.6202296982822 y: 8.101527618965857 E: 0.010189359385045326
Li -6.7665366383180165 -0.6504599641509059 0.0 
H 16.842418421443732 -0.6504599641509059 0.0 
H -10.075881783125713 1.3009199283018118 0.0 
3
total: 403 i: 365 x: 333.0073829372924 y: 8.004642872214676 E: 0.013500364181266464
Li -6.821562825996977 -0.6560677644410692 0.0 
H 16.897368115826236 -0.6560677644410692 0.0 
H -10.07580528982926 1.3121355288821386 0.0 
3
total: 403 i: 366 x: 332.2205909896712 y: 7.958745424488786 E: 0.014674022768836134
Li -6.870933196643057 -0.6702088797820288 0.0 
H 16.95555557382099 -0.6702088797820288 0.0 
H -10.084622377177936 1.3404177595640578 0.0 
3
total: 403 i: 367 x: 331.2628098353124 y: 7.965652882016552 E: 0.013219405736817638
Li -6.915372576590897 -0.6932847780544864 0.0 
H 17.018510450580038 -0.6932847780544864 0.0 
H -10.10313787398914 1.3865695561089728 0.0 
3
total: 403 i: 368 x: 330.1405717500824 y: 8.026950956059379 E: 0.009518335275487353
Li -6.955687545813121 -0.7257853276874648 0.0 
H 17.08739910642671 -0.7257853276874648 0.0 
H -10.131711560613587 1.4515706553749297 0.0 
3
total: 403 i: 369 x: 328.8624509900147 y: 8.14277583193571 E: 0.0048492632648358775
Li -6.993104795492738 -0.768182611090852 0.0 
H 17.16316664116398 -0.768182611090852 0.0 
H -10.170061845671242 1.5363652221817037 0.0 
3
total: 403 i: 370 x: 327.43788556658853 y: 8.310967800218048 E: 0.001048659593650965
Li -7.02943240445282 -0.8208029934362181 0.0 
H 17.246504533604597 -0.8208029934362181 0.0 
H -10.217072129151779 1.641605986872436 0.0 
3
total: 403 i: 371 x: 325.8732776024335 y: 8.526656807933792 E: -0.00011678033798257603
Li -7.067225528401829 -0.8837609507270368 0.0 
H 17.337927221787773 -0.8837609507270368 0.0 
H -10.270701693385941 1.7675219014540735 0.0 
3
total: 403 i: 372 x: 324.16653907330635 y: 8.782469739377273 E: 0.0024155484416138974
Li -7.109925909037226 -0.9569708782554791 0.0 
H 17.437942563609308 -0.9569708782554791 0.0 
H -10.328016654572082 1.9139417565109582 0.0 
3
total: 403 i: 373 x: 322.31148061471646 y: 9.067531745040574 E: 0.008646825882685524
Li -7.1617266945088405 -1.039743357439778 0.0 
H 17.546687032334134 -1.039743357439778 0.0 
H -10.384960337825293 2.0794867148795566 0.0 
3
total: 403 i: 374 x: 320.32877751464207 y: 9.362951654011486 E: 0.01743169760702505
Li -7.226300317376776 -1.1291609079943403 0.0 
H 17.66207786593617 -1.1291609079943403 0.0 
H -10.435777548559393 2.2583218159886806 0.0 
3
total: 403 i: 375 x: 318.21030984440813 y: 9.652147862843547 E: 0.02722546637100114
Li -7.307754631926613 -1.2226147193446937 0.0 
H 17.78317320964672 -1.2226147193446937 0.0 
H -10.475418577720104 2.4452294386893874 0.0 
3
total: 403 i: 376 x: 315.9438572664859 y: 9.918501666817065 E: 0.0366371375394536
Li -7.409651766344946 -1.3168787266040158 0.0 
H 17.908838967671063 -1.3168787266040158 0.0 
H -10.49918720132612 2.6337574532080312 0.0 
3
total: 403 i: 377 x: 313.5030167237108 y: 10.146984555506465 E: 0.0447294185836459
Li -7.535251311291049 -1.4085907921356158 0.0 
H 18.03834699292841 -1.4085907921356158 0.0 
H -10.503095681637362 2.817181584271231 0.0 
3
total: 403 i: 378 x: 310.86230231335054 y: 10.322204998413916 E: 0.05092291245361619
Li -7.6866573440455825 -1.493621929872963 0.0 
H 18.17050604252591 -1.493621929872963 0.0 
H -10.483848698480328 2.9872438597459263 0.0 
3
total: 403 i: 379 x: 308.1571829204834 y: 10.425210706740184 E: 0.05471704827273539
Li -7.8542012151254035 -1.5636722350985286 0.0 
H 18.29655358931179 -1.5636722350985286 0.0 
H -10.442352374186388 3.127344470197057 0.0 
3
total: 403 i: 380 x: 305.32958107586654 y: 10.455120745211502 E: 0.056263128072690044
Li -8.037752902340623 -1.6177711492814544 0.0 
H 18.417869391607788 -1.6177711492814544 0.0 
H -10.380116489267163 3.235542298562909 0.0 
3
total: 403 i: 381 x: 301.8986968105005 y: 10.395377405508905 E: 0.05525153494562351
Li -8.265030466845998 -1.6577804800068445 0.0 
H 18.55088184565902 -1.6577804800068445 0.0 
H -10.285851378813023 3.3155609600136886 0.0 
3
total: 403 i: 382 x: 297.3167634499283 y: 10.176666585380115 E: 0.04959099676265641
Li -8.56447716692543 -1.6712663763661944 0.0 
H 18.705645286242145 -1.6712663763661944 0.0 
H -10.14116811931672 3.3425327527323887 0.0 
3
total: 403 i: 383 x: 293.504648296597 y: 9.89867747244189 E: 0.0416006709123794
Li -8.801740943949444 -1.6529470374988737 0.0 
H 18.81649192879045 -1.6529470374988737 0.0 
H -10.014750984841008 3.305894074997748 0.0 
3
total: 403 i: 384 x: 290.1897388659621 y: 9.604710991241207 E: 0.03270633440420558
Li -8.995355724724721 -1.6197045465013147 0.0 
H 18.901428548122094 -1.6197045465013147 0.0 
H -9.906072823397373 3.239409093002629 0.0 
3
total: 403 i: 385 x: 287.1179107487597 y: 9.302892367899592 E: 0.023492110210305547
Li -9.162709093476506 -1.5780020204918264 0.0 
H 18.971995313765568 -1.5780020204918264 0.0 
H -9.809286220289062 3.1560040409836523 0.0 
3
total: 403 i: 386 x: 284.31187443835887 y: 9.013624917903666 E: 0.015071015885838774
Li -9.305065086775466 -1.533457353570281 0.0 
H 19.03064340705098 -1.533457353570281 0.0 
H -9.725578320275513 3.066914707140562 0.0 
3
total: 403 i: 387 x: 281.74659669099526 y: 8.746899189360015 E: 0.0082258700355349
Li -9.426609645463573 -1.4894416418354852 0.0 
H 19.08015612410228 -1.4894416418354852 0.0 
H -9.653546478638711 2.97888328367097 0.0 
3
total: 403 i: 388 x: 279.39909901762445 y: 8.508138288413479 E: 0.0034110058668092454
Li -9.531087090800494 -1.4479892909981746 0.0 
H 19.12255904513352 -1.4479892909981746 0.0 
H -9.591471954333025 2.8959785819963493 0.0 
3
total: 403 i: 389 x: 277.2104055086031 y: 8.295943003274026 E: 0.0006835626652676185
Li -9.623241008438423 -1.409539329802797 0.0 
H 19.15996322095653 -1.409539329802797 0.0 
H -9.536722212518107 2.8190786596055935 0.0 
3
total: 403 i: 390 x: 274.8900966114329 y: 8.087849331185184 E: -4.850358196291947e-05
Li -9.716135377624536 -1.3701387221706736 0.0 
H 19.197698616081627 -1.3701387221706736 0.0 
H -9.48156323845709 2.7402774443413476 0.0 
3
total: 403 i: 391 x: 272.6640114377072 y: 7.909922228732399 E: 0.0012988219261597439
Li -9.801455130292789 -1.334651402767477 0.0 
H 19.23230829157785 -1.334651402767477 0.0 
H -9.430853161285057 2.6693028055349535 0.0 
3
total: 403 i: 392 x: 270.4661683626679 y: 7.760017744707028 E: 0.004190636183725807
Li -9.882967357990703 -1.3026794414162004 0.0 
H 19.26515762787951 -1.3026794414162004 0.0 
H -9.382190269888813 2.605358882832401 0.0 
3
total: 403 i: 393 x: 268.39139862919853 y: 7.645975877253767 E: 0.007688138116553992
Li -9.958335561898414 -1.2759192195426043 0.0 
H 19.295116061812692 -1.2759192195426043 0.0 
H -9.336780499914276 2.5518384390852082 0.0 
3
total: 403 i: 394 x: 266.29245777064847 y: 7.561256176816657 E: 0.0111665475451239
Li -10.033972158678901 -1.252721011819439 0.0 
H 19.324512082546825 -1.252721011819439 0.0 
H -9.290539923867925 2.505442023638878 0.0 
3
total: 403 i: 395 x: 264.1130269826747 y: 7.509241517476366 E: 0.013825317918628385
Li -10.112938614921548 -1.233152733179088 0.0 
H 19.35419010695344 -1.233152733179088 0.0 
H -9.241251492031887 2.4663054663581754 0.0 
3
total: 403 i: 396 x: 261.852230193349 y: 7.497209355199408 E: 0.01478216833371525
Li -10.196573587391422 -1.2180099060086542 0.0 
H 19.384208473832103 -1.2180099060086542 0.0 
H -9.187634886440685 2.4360198120173084 0.0 
3
total: 403 i: 397 x: 259.5241183450099 y: 7.532350206295894 E: 0.013484949672305575
Li -10.285964479540576 -1.208038599767299 0.0 
H 19.414487848630813 -1.208038599767299 0.0 
H -9.128523369090239 2.416077199534598 0.0 
3
total: 403 i: 398 x: 257.1438100502952 y: 7.620357790889717 E: 0.010088876561860806
Li -10.382344299931342 -1.2036496358752735 0.0 
H 19.44504471975886 -1.2036496358752735 0.0 
H -9.062700419827518 2.4072992717505475 0.0 
3
total: 403 i: 399 x: 254.72303746638653 y: 7.764763892066585 E: 0.005595902313041623
Li -10.487109524885502 -1.2047955247478719 0.0 
H 19.476098183634036 -1.2047955247478719 0.0 
H -8.98898865874854 2.409591049495744 0.0 
3
total: 403 i: 400 x: 252.26915021913226 y: 7.966326863300877 E: 0.001637425899127493
Li -10.601675933974542 -1.2108927575065427 0.0 
H 19.508145380322418 -1.2108927575065427 0.0 
H -8.906469446347879 2.4217855150130854 0.0 
3
total: 403 i: 401 x: 249.7823859379887 y: 8.22259420113042 E: -6.815714950165859e-05
Li -10.727397619459387 -1.2207738329326314 0.0 
H 19.542073941593024 -1.2207738329326314 0.0 
H -8.814676322133636 2.4415476658652633 0.0 
3
total: 403 i: 402 x: 247.25131041417904 y: 8.528009708770396 E: 0.0016561308509223677
Li -10.865634481761575 -1.2326991202716986 0.0 
H 19.579318854934748 -1.2326991202716986 0.0 
H -8.713684373173175 2.465398240543397 0.0 
