3
total: 898 i: 0 x: 307.02840381454143 y: 8.493961619906859 E: 0.026095943714001868
Li -9.090586599362712 -1.3988627436828187 0.0 
H -11.471158589191976 2.7977254873656374 0.0 
H 20.56174518855469 -1.3988627436828187 0.0 
3
total: 898 i: 1 x: 307.02840381454234 y: 8.493961619908085 E: 0.02609594371396769
Li -9.090586599359979 -1.3988627436826437 0.0 
H -11.471158589188926 2.7977254873652875 0.0 
H 20.561745188548905 -1.3988627436826437 0.0 
3
total: 898 i: 2 x: 307.0284038145428 y: 8.493961619908756 E: 0.02609594371394914
Li -9.09058659935848 -1.3988627436825471 0.0 
H -11.471158589187255 2.7977254873650947 0.0 
H 20.561745188545736 -1.3988627436825471 0.0 
3
total: 898 i: 3 x: 307.0284038145433 y: 8.49396161990936 E: 0.026095943713932382
Li -9.090586599357126 -1.3988627436824608 0.0 
H -11.471158589185745 2.7977254873649215 0.0 
H 20.561745188542872 -1.3988627436824608 0.0 
3
total: 898 i: 4 x: 307.02840381454416 y: 8.493961619910545 E: 0.026095943713899363
Li -9.090586599354483 -1.3988627436822911 0.0 
H -11.4711585891828 2.7977254873645823 0.0 
H 20.56174518853728 -1.3988627436822911 0.0 
3
total: 898 i: 5 x: 307.0284038145456 y: 8.493961619912413 E: 0.026095943713847485
Li -9.090586599350312 -1.3988627436820256 0.0 
H -11.471158589178135 2.797725487364051 0.0 
H 20.561745188528448 -1.3988627436820256 0.0 
3
total: 898 i: 6 x: 307.0284038145475 y: 8.493961619915005 E: 0.02609594371377519
Li -9.090586599344515 -1.3988627436816532 0.0 
H -11.471158589171678 2.797725487363306 0.0 
H 20.56174518851619 -1.3988627436816532 0.0 
3
total: 898 i: 7 x: 307.0284038145502 y: 8.493961619918593 E: 0.02609594371367533
Li -9.09058659933651 -1.3988627436811416 0.0 
H -11.47115858916274 2.7977254873622828 0.0 
H 20.561745188499252 -1.3988627436811416 0.0 
3
total: 898 i: 8 x: 307.02840381455394 y: 8.49396161992356 E: 0.026095943713536764
Li -9.090586599325414 -1.3988627436804302 0.0 
H -11.471158589150368 2.79772548736086 0.0 
H 20.561745188475783 -1.3988627436804302 0.0 
3
total: 898 i: 9 x: 307.02840381455894 y: 8.49396161993023 E: 0.026095943713351062
Li -9.09058659931051 -1.3988627436794763 0.0 
H -11.47115858913374 2.797725487358952 0.0 
H 20.56174518844425 -1.3988627436794763 0.0 
3
total: 898 i: 10 x: 307.028403814566 y: 8.493961619939576 E: 0.026095943713090895
Li -9.090586599289646 -1.3988627436781418 0.0 
H -11.471158589110448 2.797725487356284 0.0 
H 20.561745188400096 -1.3988627436781418 0.0 
3
total: 898 i: 11 x: 307.02840381457565 y: 8.493961619952444 E: 0.026095943712732193
Li -9.0905865992609 -1.3988627436763006 0.0 
H -11.471158589078382 2.7977254873526016 0.0 
H 20.56174518833928 -1.3988627436763006 0.0 
3
total: 898 i: 12 x: 307.02840381458907 y: 8.493961619970307 E: 0.026095943712235014
Li -9.090586599221005 -1.3988627436737484 0.0 
H -11.471158589033859 2.7977254873474964 0.0 
H 20.561745188254864 -1.3988627436737484 0.0 
3
total: 898 i: 13 x: 307.0284038146075 y: 8.49396161999483 E: 0.026095943711551942
Li -9.090586599166242 -1.398862743670243 0.0 
H -11.471158588972756 2.797725487340486 0.0 
H 20.561745188139 -1.398862743670243 0.0 
3
total: 898 i: 14 x: 307.0284038146329 y: 8.493961620028658 E: 0.02609594371060937
Li -9.09058659909068 -1.3988627436654044 0.0 
H -11.471158588888452 2.7977254873308093 0.0 
H 20.561745187979128 -1.3988627436654044 0.0 
3
total: 898 i: 15 x: 307.0284038146679 y: 8.493961620075307 E: 0.026095943709310544
Li -9.09058659898649 -1.398862743658735 0.0 
H -11.471158588772202 2.7977254873174706 0.0 
H 20.561745187758692 -1.398862743658735 0.0 
3
total: 898 i: 16 x: 307.0284038147162 y: 8.493961620139634 E: 0.0260959437075191
Li -9.090586598842819 -1.3988627436495378 0.0 
H -11.471158588611901 2.7977254872990756 0.0 
H 20.56174518745472 -1.3988627436495378 0.0 
3
total: 898 i: 17 x: 307.0284038147828 y: 8.493961620228335 E: 0.02609594370504817
Li -9.090586598644705 -1.3988627436368564 0.0 
H -11.47115858839085 2.7977254872737127 0.0 
H 20.561745187035555 -1.3988627436368564 0.0 
3
total: 898 i: 18 x: 307.02840381487465 y: 8.49396162035065 E: 0.02609594370164196
Li -9.090586598371518 -1.3988627436193684 0.0 
H -11.471158588086036 2.797725487238737 0.0 
H 20.56174518645755 -1.3988627436193684 0.0 
3
total: 898 i: 19 x: 307.0284038150013 y: 8.493961620519318 E: 0.026095943696944193
Li -9.090586597994806 -1.398862743595255 0.0 
H -11.471158587665709 2.79772548719051 0.0 
H 20.561745185660513 -1.398862743595255 0.0 
3
total: 898 i: 20 x: 307.02840381517615 y: 8.493961620752165 E: 0.026095943690459065
Li -9.090586597474745 -1.398862743561964 0.0 
H -11.471158587085442 2.7977254871239277 0.0 
H 20.561745184560188 -1.398862743561964 0.0 
3
total: 898 i: 21 x: 307.0284038154166 y: 8.49396162107237 E: 0.026095943681540862
Li -9.090586596759577 -1.3988627435161833 0.0 
H -11.471158586287483 2.797725487032367 0.0 
H 20.56174518304706 -1.3988627435161833 0.0 
3
total: 898 i: 22 x: 307.0284038157487 y: 8.493961621514641 E: 0.026095943669223368
Li -9.090586595771779 -1.3988627434529526 0.0 
H -11.471158585185321 2.7977254869059047 0.0 
H 20.5617451809571 -1.3988627434529526 0.0 
3
total: 898 i: 23 x: 307.0284038162045 y: 8.493961622121716 E: 0.026095943652315236
Li -9.090586594415894 -1.398862743366158 0.0 
H -11.471158583672471 2.7977254867323156 0.0 
H 20.561745178088366 -1.398862743366158 0.0 
3
total: 898 i: 24 x: 307.0284038168334 y: 8.49396162295927 E: 0.02609594362898844
Li -9.090586592545243 -1.3988627432464116 0.0 
H -11.471158581585255 2.7977254864928236 0.0 
H 20.561745174130497 -1.3988627432464116 0.0 
3
total: 898 i: 25 x: 307.02840381770113 y: 8.493961624114833 E: 0.026095943596804668
Li -9.090586589964323 -1.3988627430811995 0.0 
H -11.471158578705543 2.797725486162399 0.0 
H 20.561745168669866 -1.3988627430811995 0.0 
3
total: 898 i: 26 x: 307.0284038189052 y: 8.493961625718397 E: 0.02609594355214342
Li -9.090586586382807 -1.3988627428519358 0.0 
H -11.4711585747094 2.7977254857038716 0.0 
H 20.561745161092205 -1.3988627428519358 0.0 
3
total: 898 i: 27 x: 307.0284038205685 y: 8.493961627933453 E: 0.02609594349045075
Li -9.090586581435533 -1.398862742535244 0.0 
H -11.47115856918939 2.7977254850704876 0.0 
H 20.561745150624922 -1.398862742535244 0.0 
3
total: 898 i: 28 x: 307.02840382284955 y: 8.493961630971272 E: 0.02609594340584347
Li -9.090586574650647 -1.3988627421009232 0.0 
H -11.471158561619017 2.7977254842018464 0.0 
H 20.561745136269664 -1.3988627421009232 0.0 
3
total: 898 i: 29 x: 307.02840382599527 y: 8.49396163516062 E: 0.026095943289163603
Li -9.090586565293856 -1.3988627415019674 0.0 
H -11.471158551178991 2.7977254830039344 0.0 
H 20.561745116472842 -1.3988627415019674 0.0 
3
total: 898 i: 30 x: 307.0284038303366 y: 8.493961640942192 E: 0.026095943128139565
Li -9.09058655238087 -1.3988627406753669 0.0 
H -11.471158536771084 2.797725481350734 0.0 
H 20.56174508915195 -1.3988627406753669 0.0 
3
total: 898 i: 31 x: 307.02840383632923 y: 8.493961648922905 E: 0.02609594290586478
Li -9.09058653455615 -1.3988627395343514 0.0 
H -11.47115851688281 2.7977254790687027 0.0 
H 20.561745051438955 -1.3988627395343514 0.0 
3
total: 898 i: 32 x: 307.02840384461217 y: 8.493961659953767 E: 0.02609594259864074
Li -9.09058650991901 -1.3988627379572511 0.0 
H -11.471158489393442 2.7977254759145023 0.0 
H 20.561744999312452 -1.3988627379572511 0.0 
3
total: 898 i: 33 x: 307.0284038560028 y: 8.493961675123254 E: 0.026095942176149023
Li -9.090586476038345 -1.3988627357884431 0.0 
H -11.471158451590437 2.7977254715768867 0.0 
H 20.56174492762878 -1.3988627357884431 0.0 
3
total: 898 i: 34 x: 307.0284038717336 y: 8.493961696072862 E: 0.026095941592671455
Li -9.090586429247907 -1.398862732793239 0.0 
H -11.471158399383095 2.7977254655864785 0.0 
H 20.561744828631003 -1.398862732793239 0.0 
3
total: 898 i: 35 x: 307.0284038933895 y: 8.493961724913252 E: 0.026095940789423594
Li -9.090586364833566 -1.3988627286698703 0.0 
H -11.471158327511535 2.79772545733974 0.0 
H 20.5617446923451 -1.3988627286698703 0.0 
3
total: 898 i: 36 x: 307.02840392325334 y: 8.493961764684563 E: 0.026095939681732683
Li -9.090586276005205 -1.3988627229836752 0.0 
H -11.471158228399545 2.797725445967351 0.0 
H 20.56174450440475 -1.3988627229836752 0.0 
3
total: 898 i: 37 x: 307.02840396424745 y: 8.493961819278654 E: 0.026095938161199688
Li -9.090586154070369 -1.3988627151782147 0.0 
H -11.471158092348347 2.7977254303564294 0.0 
H 20.561744246418716 -1.3988627151782147 0.0 
3
total: 898 i: 38 x: 307.028404021078 y: 8.493961894963125 E: 0.026095936053259723
Li -9.09058598503035 -1.3988627043573716 0.0 
H -11.471157903738575 2.7977254087147427 0.0 
H 20.561743888768923 -1.3988627043573716 0.0 
3
total: 898 i: 39 x: 307.0284041000555 y: 8.493962000141869 E: 0.026095933123841716
Li -9.090585750114927 -1.3988626893195744 0.0 
H -11.471157641626936 2.797725378639149 0.0 
H 20.561743391741864 -1.3988626893195744 0.0 
3
total: 898 i: 40 x: 307.0284042057376 y: 8.493962140884571 E: 0.026095929203878432
Li -9.090585435767045 -1.3988626691969401 0.0 
H -11.471157290886804 2.7977253383938807 0.0 
H 20.561742726653854 -1.3988626691969401 0.0 
3
total: 898 i: 41 x: 307.02840435386105 y: 8.493962338148757 E: 0.02609592370963532
Li -9.090584995177268 -1.3988626409929292 0.0 
H -11.471156799289451 2.7977252819858585 0.0 
H 20.56174179446672 -1.3988626409929292 0.0 
3
total: 898 i: 42 x: 307.028404558487 y: 8.493962610660528 E: 0.026095916119492787
Li -9.090584386518985 -1.3988626020298742 0.0 
H -11.47115612016566 2.7977252040597484 0.0 
H 20.561740506684643 -1.3988626020298742 0.0 
3
total: 898 i: 43 x: 307.02840483943305 y: 8.493962984812043 E: 0.026095905698259706
Li -9.090583550841542 -1.3988625485337502 0.0 
H -11.471155187739459 2.7977250970675005 0.0 
H 20.561738738581 -1.3988625485337502 0.0 
3
total: 898 i: 44 x: 307.02840522739086 y: 8.493963501477147 E: 0.026095891307282605
Li -9.090582396845578 -1.3988624746594065 0.0 
H -11.471153900140495 2.7977249493188134 0.0 
H 20.561736296986076 -1.3988624746594065 0.0 
3
total: 898 i: 45 x: 307.028405765035 y: 8.493964217487935 E: 0.026095871363206975
Li -9.090580797581252 -1.3988623722788438 0.0 
H -11.47115211571953 2.797724744557688 0.0 
H 20.56173291330078 -1.3988623722788438 0.0 
3
total: 898 i: 46 x: 307.02840650295616 y: 8.493965200218936 E: 0.026095843988644403
Li -9.09057860253867 -1.3988622317546457 0.0 
H -11.471149666537645 2.797724463509291 0.0 
H 20.561728269076315 -1.3988622317546457 0.0 
3
total: 898 i: 47 x: 307.02840751932735 y: 8.49396655377783 E: 0.026095806282275816
Li -9.090575579136521 -1.3988620381930978 0.0 
H -11.471146293078863 2.7977240763861957 0.0 
H 20.561721872215386 -1.3988620381930978 0.0 
3
total: 898 i: 48 x: 307.0284089303854 y: 8.493968432964094 E: 0.026095753929224034
Li -9.090571381516966 -1.398861769444009 0.0 
H -11.471141609428079 2.797723538888018 0.0 
H 20.561712990945047 -1.398861769444009 0.0 
3
total: 898 i: 49 x: 307.0284108761291 y: 8.493971024222605 E: 0.026095681730290674
Li -9.09056559304389 -1.3988613988173604 0.0 
H -11.471135150683121 2.7977227976347203 0.0 
H 20.56170074372701 -1.3988613988173604 0.0 
3
total: 898 i: 50 x: 307.0284135754065 y: 8.493974619007137 E: 0.026095581555338192
Li -9.090557562335361 -1.3988608845769435 0.0 
H -11.471126189988103 2.7977217691538874 0.0 
H 20.56168375232346 -1.3988608845769435 0.0 
3
total: 898 i: 51 x: 307.02841725389027 y: 8.493979517861552 E: 0.026095445011601107
Li -9.090546617389885 -1.3988601836375378 0.0 
H -11.47111397743298 2.7977203672750752 0.0 
H 20.56166059482286 -1.3988601836375378 0.0 
3
total: 898 i: 52 x: 307.0284223694678 y: 8.493986330585901 E: 0.02609525506850902
Li -9.090531394665211 -1.398859208570544 0.0 
H -11.471096991384375 2.7977184171410885 0.0 
H 20.561628386049584 -1.398859208570544 0.0 
3
total: 898 i: 53 x: 307.028429390798 y: 8.493995681330041 E: 0.026094994259854908
Li -9.090510497362354 -1.39885786970777 0.0 
H -11.471073672921547 2.7977157394155396 0.0 
H 20.5615841702839 -1.39885786970777 0.0 
3
total: 898 i: 54 x: 307.0284390975704 y: 8.49400860847125 E: 0.026094633501005875
Li -9.090481600778128 -1.3988560177317773 0.0 
H -11.471041427387213 2.7977120354635545 0.0 
H 20.56152302816534 -1.3988560177317773 0.0 
3
total: 898 i: 55 x: 307.02845243443664 y: 8.494026370094321 E: 0.026094137450377752
Li -9.090441884875315 -1.398853471193102 0.0 
H -11.470997106754098 2.7977069423862035 0.0 
H 20.561438991629412 -1.398853471193102 0.0 
3
total: 898 i: 56 x: 307.0284708309523 y: 8.494050870094368 E: 0.026093452494738587
Li -9.090387077656738 -1.398849954820749 0.0 
H -11.470935941512884 2.797699909641498 0.0 
H 20.56132301916962 -1.398849954820749 0.0 
3
total: 898 i: 57 x: 307.0284963072588 y: 8.494084798955056 E: 0.02609250256341976
Li -9.090311131852252 -1.3988450780104695 0.0 
H -11.470851178600004 2.7976901560209386 0.0 
H 20.56116231045226 -1.3988450780104695 0.0 
3
total: 898 i: 58 x: 307.02853124223077 y: 8.494131325026315 E: 0.02609119734683957
Li -9.09020690169721 -1.398838376978265 0.0 
H -11.470734834620517 2.79767675395653 0.0 
H 20.560941736317723 -1.398838376978265 0.0 
3
total: 898 i: 59 x: 307.02857946254716 y: 8.49419554504387 E: 0.026089390813946782
Li -9.090062866877568 -1.3988291017146055 0.0 
H -11.470574035089433 2.7976582034292106 0.0 
H 20.560636901967 -1.3988291017146055 0.0 
3
total: 898 i: 60 x: 307.0286457490644 y: 8.494283826934778 E: 0.026086898018951248
Li -9.089864550119358 -1.3988163021206708 0.0 
H -11.470352588622848 2.7976326042413415 0.0 
H 20.560217138742207 -1.3988163021206708 0.0 
3
total: 898 i: 61 x: 307.02873668556964 y: 8.494404940575661 E: 0.026083460361308274
Li -9.089591882709557 -1.3987986493733355 0.0 
H -11.47004803117587 2.7975972987466706 0.0 
H 20.559639913885427 -1.3987986493733355 0.0 
3
total: 898 i: 62 x: 307.02886196826444 y: 8.49457180259894 E: 0.02607869018391788
Li -9.089215079076352 -1.39877415089393 0.0 
H -11.469626988874605 2.7975483017878604 0.0 
H 20.558842067950955 -1.39877415089393 0.0 
3
total: 898 i: 63 x: 307.0290344473041 y: 8.49480153324852 E: 0.026072057511940402
Li -9.088694117800477 -1.398740081184121 0.0 
H -11.4690445403559 2.7974801623682426 0.0 
H 20.55773865815638 -1.398740081184121 0.0 
3
total: 898 i: 64 x: 307.0292713547283 y: 8.495117094690414 E: 0.02606282157594568
Li -9.08797431537408 -1.3986926281702023 0.0 
H -11.468239163480124 2.7973852563404042 0.0 
H 20.556213478854204 -1.3986926281702023 0.0 
3
total: 898 i: 65 x: 307.02959290871814 y: 8.495545436813458 E: 0.026050047683488505
Li -9.086989299534329 -1.3986269765329267 0.0 
H -11.4671358784702 2.7972539530658533 0.0 
H 20.554125178004526 -1.3986269765329267 0.0 
3
total: 898 i: 66 x: 307.03003244210737 y: 8.496130999329955 E: 0.02603212962291273
Li -9.085627441669908 -1.3985348464511842 0.0 
H -11.465608284857888 2.797069692902368 0.0 
H 20.5512357265278 -1.3985348464511842 0.0 
3
total: 898 i: 67 x: 307.03062187036767 y: 8.496916371126321 E: 0.026007234923400256
Li -9.08377191059807 -1.3984067702323069 0.0 
H -11.463522783951564 2.7968135404646137 0.0 
H 20.547294694549635 -1.3984067702323069 0.0 
3
total: 898 i: 68 x: 307.03142340847796 y: 8.497984587338761 E: 0.025971689568787187
Li -9.081191502243415 -1.398223758608875 0.0 
H -11.460614577091071 2.79644751721775 0.0 
H 20.541806079334492 -1.398223758608875 0.0 
3
total: 898 i: 69 x: 307.0324921188194 y: 8.49940930312012 E: 0.02592098891439697
Li -9.077639212539284 -1.3979624520475837 0.0 
H -11.456595762164302 2.795924904095167 0.0 
H 20.534234974703587 -1.3979624520475837 0.0 
3
total: 898 i: 70 x: 307.03389420208816 y: 8.501279304505642 E: 0.025847986020259686
Li -9.072759417149959 -1.3975857070324134 0.0 
H -11.451046109506581 2.7951714140648267 0.0 
H 20.52380552665654 -1.3975857070324134 0.0 
3
total: 898 i: 71 x: 307.0356952139148 y: 8.503683092666646 E: 0.025741284156217237
Li -9.066053434388612 -1.3970341297851647 0.0 
H -11.443364434846732 2.79406825957033 0.0 
H 20.509417869235342 -1.3970341297851647 0.0 
3
total: 898 i: 72 x: 307.037919635152 y: 8.50665551560834 E: 0.025583287151739006
Li -9.056882058092848 -1.3962156787903564 0.0 
H -11.432754222429196 2.792431357580713 0.0 
H 20.489636280522042 -1.3962156787903564 0.0 
3
total: 898 i: 73 x: 307.04051446688777 y: 8.510130386408804 E: 0.02534359634171479
Li -9.044301604353294 -1.3949708187555163 0.0 
H -11.418001022827482 2.789941637511032 0.0 
H 20.462302627180776 -1.3949708187555163 0.0 
3
total: 898 i: 74 x: 307.043187533804 y: 8.513726973176826 E: 0.024972101445770688
Li -9.027098658687711 -1.3930352179378032 0.0 
H -11.397446848568112 2.7860704358756063 0.0 
H 20.42454550725583 -1.3930352179378032 0.0 
3
total: 898 i: 75 x: 307.04514717897325 y: 8.51640697063515 E: 0.02438336355831458
Li -9.003680760414946 -1.3899551907832857 0.0 
H -11.368741896352269 2.7799103815665713 0.0 
H 20.37242265676722 -1.3899551907832857 0.0 
3
total: 898 i: 76 x: 307.0445802936036 y: 8.515785747111245 E: 0.02343236590497625
Li -8.9720673750416 -1.3849523300156086 0.0 
H -11.328614954095523 2.7699046600312167 0.0 
H 20.30068232913712 -1.3849523300156086 0.0 
3
total: 898 i: 77 x: 307.0376723208709 y: 8.506839359040136 E: 0.02186785823025281
Li -8.929719416840133 -1.3766511681696139 0.0 
H -11.27225717777041 2.7533023363392273 0.0 
H 20.201976594610542 -1.3766511681696139 0.0 
3
total: 898 i: 78 x: 307.0170798795717 y: 8.479882988713207 E: 0.019302511667853267
Li -8.874271365654584 -1.3628238020000787 0.0 
H -11.193645164291791 2.725647604000158 0.0 
H 20.067916529946373 -1.3628238020000787 0.0 
3
total: 898 i: 79 x: 306.96987377617194 y: 8.417842403720876 E: 0.015204031411554596
Li -8.803676970363403 -1.3399565047543744 0.0 
H -11.084975476651328 2.6799130095087493 0.0 
H 19.888652447014735 -1.3399565047543744 0.0 
3
total: 898 i: 80 x: 306.87893147819176 y: 8.298040932270185 E: 0.009333169850720193
Li -8.719194095183843 -1.304208233904139 0.0 
H -10.941225293379935 2.6084164678082784 0.0 
H 19.660419388563774 -1.304208233904139 0.0 
3
total: 898 i: 81 x: 306.7279703120947 y: 8.09878433854746 E: 0.0027563502009662734
Li -8.623351822918229 -1.252536465873035 0.0 
H -10.759897406978455 2.50507293174607 0.0 
H 19.383249229896684 -1.252536465873035 0.0 
3
total: 898 i: 82 x: 306.5810447915612 y: 7.90452937498678 E: -3.2303443231168475e-05
Li -8.54861339364134 -1.2059693990429212 0.0 
H -10.60811257360729 2.411938798085843 0.0 
H 19.15672596724863 -1.2059693990429212 0.0 
3
total: 898 i: 83 x: 306.4451009354277 y: 7.724560920684663 E: 0.0013081711139289413
Li -8.482984625552733 -1.1641996379434294 0.0 
H -10.473277045721833 2.3283992758868592 0.0 
H 18.95626167127456 -1.1641996379434294 0.0 
3
total: 898 i: 84 x: 306.3193498971892 y: 7.55792418152898 E: 0.007098585554921734
Li -8.415355362820078 -1.125322798505523 0.0 
H -10.341078018939584 2.2506455970110464 0.0 
H 18.756433381759656 -1.125322798505523 0.0 
3
total: 898 i: 85 x: 306.23132737813285 y: 7.441235802273948 E: 0.015163772928585032
Li -8.34999504765683 -1.0961692747848453 0.0 
H -10.227112054272256 2.1923385495696905 0.0 
H 18.577107101929087 -1.0961692747848453 0.0 
3
total: 898 i: 86 x: 306.187611847802 y: 7.3833505127235055 E: 0.022260972212677994
Li -8.28582041916433 -1.0777414183707157 0.0 
H -10.13199984252172 2.155482836741432 0.0 
H 18.417820261686046 -1.0777414183707157 0.0 
3
total: 898 i: 87 x: 306.1849356929614 y: 7.379968544052422 E: 0.02585559702658017
Li -8.229447794916686 -1.0698302292443687 0.0 
H -10.062101426782974 2.1396604584887378 0.0 
H 18.291549221699654 -1.0698302292443687 0.0 
3
total: 898 i: 88 x: 306.21033965851177 y: 7.413892691383333 E: 0.02645169058503047
Li -8.175792913548241 -1.0686364628184297 0.0 
H -10.006025130366288 2.137272925636859 0.0 
H 18.181818043914532 -1.0686364628184297 0.0 
3
total: 898 i: 89 x: 306.25062156117366 y: 7.467550530110798 E: 0.025011694073043596
Li -8.129873272005167 -1.071747357049966 0.0 
H -9.964842812690039 2.1434947140999316 0.0 
H 18.094716084695204 -1.071747357049966 0.0 
3
total: 898 i: 90 x: 306.2971721370321 y: 7.529497141315094 E: 0.022673606760050133
Li -8.090112095401567 -1.0770058533626607 0.0 
H -9.933401073421697 2.1540117067253215 0.0 
H 18.023513168823264 -1.0770058533626607 0.0 
3
total: 898 i: 91 x: 306.35527105458226 y: 7.606754927861355 E: 0.01954824085167378
Li -8.048765621710656 -1.0845767500754493 0.0 
H -9.9041533568666 2.169153500150899 0.0 
H 17.95291897857726 -1.0845767500754493 0.0 
3
total: 898 i: 92 x: 306.44847565064157 y: 7.7305926449377615 E: 0.014741448132635095
Li -7.991874788922178 -1.0978293113075128 0.0 
H -9.86853849149232 2.195658622615025 0.0 
H 17.860413280414498 -1.0978293113075128 0.0 
3
total: 898 i: 93 x: 306.57065385437755 y: 7.892759691033894 E: 0.009375113766152472
Li -7.926350739426383 -1.1161995054010165 0.0 
H -9.832554249797798 2.232399010802033 0.0 
H 17.75890498922418 -1.1161995054010165 0.0 
3
total: 898 i: 94 x: 306.7255526107484 y: 8.098101661043462 E: 0.004377340873226637
Li -7.850867242497174 -1.1402294603297964 0.0 
H -9.795688634074995 2.2804589206595933 0.0 
H 17.646555876572172 -1.1402294603297964 0.0 
3
total: 898 i: 95 x: 306.9124683497575 y: 8.345515592265617 E: 0.0009164022743400653
Li -7.7655420230059455 -1.1696401635977145 0.0 
H -9.757520279582934 2.3392803271954294 0.0 
H 17.52306230258888 -1.1696401635977145 0.0 
3
total: 898 i: 96 x: 307.1296068904586 y: 8.632423476577872 E: -0.00012603021740389245
Li -7.670002782615463 -1.2038155276299711 0.0 
H -9.71657000299269 2.407631055259942 0.0 
H 17.386572785608156 -1.2038155276299711 0.0 
3
total: 898 i: 97 x: 307.37345800656055 y: 8.953962736888524 E: 0.0015932413530342076
Li -7.563733645608061 -1.2416965040075227 0.0 
H -9.670489018304504 2.483393008015045 0.0 
H 17.23422266391257 -1.2416965040075227 0.0 
3
total: 898 i: 98 x: 307.6377597883748 y: 9.301657347116848 E: 0.0057637115599433394
Li -7.446472787341874 -1.2815998215049342 0.0 
H -9.616186119988607 2.5631996430098685 0.0 
H 17.06265890733048 -1.2815998215049342 0.0 
3
total: 898 i: 99 x: 307.9087389747145 y: 9.657240432051758 E: 0.011405858747538524
Li -7.320437531598972 -1.3205473086292747 0.0 
H -9.551036928381247 2.641094617258549 0.0 
H 16.87147445998022 -1.3205473086292747 0.0 
3
total: 898 i: 100 x: 308.17467290953135 y: 10.005303851961678 E: 0.01734163681840685
Li -7.186328186608737 -1.3557855181277507 0.0 
H -9.471320410714878 2.711571036255502 0.0 
H 16.657648597323615 -1.3557855181277507 0.0 
3
total: 898 i: 101 x: 308.42042344213945 y: 10.326152136873976 E: 0.022417268224737222
Li -7.0459231213783875 -1.384040738230915 0.0 
H -9.373657622911498 2.7680814764618296 0.0 
H 16.41958074428989 -1.384040738230915 0.0 
3
total: 898 i: 102 x: 308.6269559354926 y: 10.595218841447325 E: 0.025648781427147663
Li -6.903222748122914 -1.401759567874343 0.0 
H -9.256572654495073 2.8035191357486857 0.0 
H 16.159795402617988 -1.401759567874343 0.0 
3
total: 898 i: 103 x: 308.74419137319194 y: 10.747742452391767 E: 0.02645955614407581
Li -6.798769125754099 -1.4064056818402724 0.0 
H -9.157519174435073 2.8128113636805443 0.0 
H 15.956288300189172 -1.4064056818402724 0.0 
3
total: 898 i: 104 x: 308.82730929776807 y: 10.85583542091421 E: 0.025697571987375413
Li -6.693067063903904 -1.4027177670515927 0.0 
H -9.043922631655361 2.805435534103185 0.0 
H 15.736989695559267 -1.4027177670515927 0.0 
3
total: 898 i: 105 x: 308.8694207835662 y: 10.910741723025803 E: 0.022111606343538724
Li -6.560278039537515 -1.383982494740067 0.0 
H -8.878861335035193 2.7679649894801335 0.0 
H 15.439139374572708 -1.383982494740067 0.0 
3
total: 898 i: 106 x: 308.8254623558469 y: 10.854015854362055 E: 0.015421552953253438
Li -6.429993229190373 -1.3472903187320744 0.0 
H -8.68793827720232 2.6945806374641483 0.0 
H 15.117931506392694 -1.3472903187320744 0.0 
3
total: 898 i: 107 x: 308.70115400896356 y: 10.692863536929332 E: 0.007489930119509502
Li -6.3161542849954015 -1.2979070771228203 0.0 
H -8.493651774164741 2.59581415424564 0.0 
H 14.809806059160142 -1.2979070771228203 0.0 
3
total: 898 i: 108 x: 308.5506288107998 y: 10.497273534029205 E: 0.0018933482505960782
Li -6.2305267103497926 -1.250061958809017 0.0 
H -8.330457016217581 2.5001239176180334 0.0 
H 14.560983726567375 -1.250061958809017 0.0 
3
total: 898 i: 109 x: 308.39029397074523 y: 10.288490766119606 E: -0.00031604135830018475
Li -6.156726633318982 -1.2037193543000628 0.0 
H -8.181575745823055 2.407438708600126 0.0 
H 14.33830237914204 -1.2037193543000628 0.0 
3
total: 898 i: 110 x: 308.243616455493 y: 10.097095651305608 E: 0.0016213152522835642
Li -6.091735334201669 -1.1627356504599324 0.0 
H -8.050085660197029 2.3254713009198644 0.0 
H 14.1418209943987 -1.1627356504599324 0.0 
3
total: 898 i: 111 x: 308.1124263841275 y: 9.925551686695437 E: 0.007820323495414132
Li -6.024536080222961 -1.125102610428506 0.0 
H -7.9216167326472355 2.250205220857012 0.0 
H 13.946152812870196 -1.125102610428506 0.0 
3
total: 898 i: 112 x: 308.02815228561377 y: 9.815080473275124 E: 0.01591554713432764
Li -5.9591241423540895 -1.097210536671022 0.0 
H -7.810506844092286 2.1944210733420437 0.0 
H 13.769630986446376 -1.097210536671022 0.0 
3
total: 898 i: 113 x: 307.99933466606973 y: 9.777041183427649 E: 0.022677572213417083
Li -5.894889905180567 -1.0800654020770473 0.0 
H -7.717808228306195 2.160130804154095 0.0 
H 13.612698133486763 -1.0800654020770473 0.0 
3
total: 898 i: 114 x: 308.01855753676585 y: 9.801864485567707 E: 0.025828706981869603
Li -5.838719561785783 -1.0732081469483943 0.0 
H -7.649796346674272 2.146416293896789 0.0 
H 13.488515908460055 -1.0732081469483943 0.0 
3
total: 898 i: 115 x: 308.07089745666804 y: 9.8699963478607 E: 0.02604569177210191
Li -5.78574881066276 -1.0728386370692076 0.0 
H -7.595430242431874 2.145677274138415 0.0 
H 13.381179053094634 -1.0728386370692076 0.0 
3
total: 898 i: 116 x: 308.1356374451411 y: 9.954347988335378 E: 0.024471986955088825
Li -5.742045520177452 -1.0762943497866189 0.0 
H -7.556587359589474 2.152588699573238 0.0 
H 13.298632879766927 -1.0762943497866189 0.0 
3
total: 898 i: 117 x: 308.22235776208106 y: 10.067325602989273 E: 0.021543317403329123
Li -5.695667018868988 -1.0830450238597507 0.0 
H -7.520275841160754 2.166090047719501 0.0 
H 13.215942860029742 -1.0830450238597507 0.0 
3
total: 898 i: 118 x: 308.3222564445179 y: 10.197397869756267 E: 0.01792748296889279
Li -5.650290421339452 -1.0921784870761486 0.0 
H -7.488752021690799 2.184356974152297 0.0 
H 13.139042443030252 -1.0921784870761486 0.0 
3
total: 898 i: 119 x: 308.4709809999985 y: 10.390846958204346 E: 0.012847848089327889
Li -5.590989483312708 -1.1070989031340301 0.0 
H -7.452238742638898 2.2141978062680607 0.0 
H 13.043228225951605 -1.1070989031340301 0.0 
3
total: 898 i: 120 x: 308.66147976996484 y: 10.638240600661769 E: 0.007458436331091734
Li -5.522858891645562 -1.1273647933654654 0.0 
H -7.415123920016331 2.2547295867309307 0.0 
H 12.937982811661893 -1.1273647933654654 0.0 
3
total: 898 i: 121 x: 308.897763279445 y: 10.944429981805401 E: 0.0027882282641816677
Li -5.4449312392004385 -1.1533192216305117 0.0 
H -7.37685618931928 2.306638443261024 0.0 
H 12.821787428519716 -1.1533192216305117 0.0 
3
total: 898 i: 122 x: 309.1789097784088 y: 11.307741980471878 E: -4.343066007689934e-05
Li -5.357191335884729 -1.1845829615153687 0.0 
H -7.336675918817978 2.369165923030737 0.0 
H 12.69386725470271 -1.1845829615153687 0.0 
3
total: 898 i: 123 x: 309.5026913044175 y: 11.72471770093783 E: -0.00029349397786439664
Li -5.259223677247637 -1.2204166402475047 0.0 
H -7.292827908135191 2.44083328049501 0.0 
H 12.55205158538283 -1.2204166402475047 0.0 
3
total: 898 i: 124 x: 309.8648656073287 y: 12.189238679318333 E: 0.0021917439022125134
Li -5.150475392527071 -1.2596204517993577 0.0 
H -7.242687940798444 2.5192409035987158 0.0 
H 12.393163333325518 -1.2596204517993577 0.0 
3
total: 898 i: 125 x: 310.25501124864513 y: 12.687292745011161 E: 0.006883329594535337
Li -5.031488574837094 -1.3000675088492353 0.0 
H -7.183331801627471 2.60013501769847 0.0 
H 12.214820376464562 -1.3000675088492353 0.0 
3
total: 898 i: 126 x: 310.6569700196405 y: 13.197769753768936 E: 0.012701711640628088
Li -4.903922564472455 -1.3388414508935729 0.0 
H -7.111840408947073 2.677682901787146 0.0 
H 12.015762973419527 -1.3388414508935729 0.0 
3
total: 898 i: 127 x: 311.05553564850095 y: 13.701142020397487 E: 0.018454106619210788
Li -4.768679784059811 -1.373003088293457 0.0 
H -7.024603520019763 2.7460061765869144 0.0 
H 11.793283304079575 -1.373003088293457 0.0 
3
total: 898 i: 128 x: 311.4305845156724 y: 14.172116691629965 E: 0.023025350452164823
Li -4.627879997912624 -1.3991256726941286 0.0 
H -6.9186580045516735 2.798251345388257 0.0 
H 11.546538002464297 -1.3991256726941286 0.0 
3
total: 898 i: 129 x: 311.75451711806903 y: 14.576601302031902 E: 0.02550327036281442
Li -4.48677111223627 -1.4136346254450558 0.0 
H -6.794217275191164 2.8272692508901116 0.0 
H 11.280988387427435 -1.4136346254450558 0.0 
3
total: 898 i: 130 x: 311.9840887300722 y: 14.861732844801026 E: 0.0255340176415193
Li -4.363450642744897 -1.4149118316520604 0.0 
H -6.6679497138256885 2.829823663304121 0.0 
H 11.031400356570586 -1.4149118316520604 0.0 
3
total: 898 i: 131 x: 312.1463906989283 y: 15.062169158745496 E: 0.023314751245860403
Li -4.244118685488964 -1.4041240731714832 0.0 
H -6.527554521989537 2.808248146342966 0.0 
H 10.771673207478502 -1.4041240731714832 0.0 
3
total: 898 i: 132 x: 312.23916944168445 y: 15.175286576574003 E: 0.01776828657724028
Li -4.1097122702327455 -1.375079005562038 0.0 
H -6.344080139921335 2.7501580111240758 0.0 
H 10.45379241015408 -1.375079005562038 0.0 
3
total: 898 i: 133 x: 312.21779559813587 y: 15.14620406571382 E: 0.009935699740113758
Li -3.9870407282663343 -1.330181362662156 0.0 
H -6.149170057524158 2.660362725324312 0.0 
H 10.136210785790492 -1.330181362662156 0.0 
3
total: 898 i: 134 x: 312.1209677070458 y: 15.023278980707408 E: 0.00322446707193813
Li -3.89310991619447 -1.2830127743565174 0.0 
H -5.9808221039372 2.566025548713035 0.0 
H 9.873932020131669 -1.2830127743565174 0.0 
3
total: 898 i: 135 x: 311.9853137574751 y: 14.851495601261032 E: -0.0009506792365163223
Li -3.8125049521641188 -1.2350034879654206 0.0 
H -5.825054388226685 2.4700069759308416 0.0 
H 9.637559340390803 -1.2350034879654206 0.0 
3
total: 898 i: 136 x: 311.8450796474245 y: 14.673354287171062 E: -0.0011596352452446909
Li -3.7422813205817937 -1.190689077243922 0.0 
H -5.68556824987553 2.3813781544878436 0.0 
H 9.427849570457322 -1.190689077243922 0.0 
3
total: 898 i: 137 x: 311.7257671430106 y: 14.520699696793905 E: 0.0026564002757656956
Li -3.678146842409003 -1.152324737603056 0.0 
H -5.5613097752022105 2.304649475206112 0.0 
H 9.239456617611214 -1.152324737603056 0.0 
3
total: 898 i: 138 x: 311.6426643485695 y: 14.412437457211558 E: 0.009947776708354769
Li -3.611296080231124 -1.118988209814878 0.0 
H -5.441806245837153 2.2379764196297556 0.0 
H 9.053102326068275 -1.118988209814878 0.0 
3
total: 898 i: 139 x: 311.6270294314588 y: 14.388286411253127 E: 0.017649348159729787
Li -3.5457293657426217 -1.0959717073842679 0.0 
H -5.339232096455444 2.191943414768536 0.0 
H 8.884961462198065 -1.0959717073842679 0.0 
3
total: 898 i: 140 x: 311.6849901753291 y: 14.456172879431453 E: 0.022849266454706422
Li -3.4814364288801696 -1.0835732588603326 0.0 
H -5.254037644631413 2.1671465177206652 0.0 
H 8.735474073511584 -1.0835732588603326 0.0 
3
total: 898 i: 141 x: 311.7905864936943 y: 14.584163496427603 E: 0.024316306754932095
Li -3.426344585522873 -1.0803864907379463 0.0 
H -5.192257135061215 2.1607729814758923 0.0 
H 8.618601720584088 -1.0803864907379463 0.0 
3
total: 898 i: 142 x: 311.92481836413197 y: 14.748091420319636 E: 0.023299966098595387
Li -3.376804922588496 -1.0825653569676794 0.0 
H -5.144269272567578 2.1651307139353584 0.0 
H 8.521074195156075 -1.0825653569676794 0.0 
3
total: 898 i: 143 x: 311.9931537842499 y: 14.831705325508006 E: 0.022286538148104214
Li -3.355361553426617 -1.0847899419923437 0.0 
H -5.125406185315077 2.169579883984688 0.0 
H 8.480767738741694 -1.0847899419923437 0.0 
3
total: 898 i: 144 x: 312.066748205747 y: 14.92179277252358 E: 0.02100256164044889
Li -3.334011403116428 -1.0876878056771038 0.0 
H -5.1076352761852615 2.175375611354207 0.0 
H 8.44164667930169 -1.0876878056771038 0.0 
3
total: 898 i: 145 x: 312.22911417174635 y: 15.120533906443008 E: 0.017818072494814798
Li -3.2912826413316307 -1.095308862460186 0.0 
H -5.074742928381475 2.190617724920372 0.0 
H 8.366025569713107 -1.095308862460186 0.0 
3
total: 898 i: 146 x: 312.4568683386163 y: 15.398994376073684 E: 0.01319922512410339
Li -3.2378051798796292 -1.1077366348161786 0.0 
H -5.037760415619195 2.2154732696323567 0.0 
H 8.275565595498824 -1.1077366348161786 0.0 
3
total: 898 i: 147 x: 312.7531533440259 y: 15.760306148688695 E: 0.007727309929307441
Li -3.174907943532887 -1.1255647528801285 0.0 
H -4.9988002538767065 2.2511295057602565 0.0 
H 8.173708197409594 -1.1255647528801285 0.0 
3
total: 898 i: 148 x: 313.12350599624136 y: 16.210054067298472 E: 0.002347172176946277
Li -3.1025117800862057 -1.149193390512191 0.0 
H -4.958158510284152 2.298386781024382 0.0 
H 8.060670290370359 -1.149193390512191 0.0 
3
total: 898 i: 149 x: 313.5700102570779 y: 16.74908623873744 E: -0.0017928167416002266
Li -3.0205954878390675 -1.1785221525920717 0.0 
H -4.915378119119859 2.357044305184144 0.0 
H 7.935973606958928 -1.1785221525920717 0.0 
3
total: 898 i: 150 x: 314.0930765851743 y: 17.375679640114182 E: -0.0037380048796160936
Li -2.9288715136004466 -1.2130415441566322 0.0 
H -4.869056826716701 2.4260830883132645 0.0 
H 7.7979283403171475 -1.2130415441566322 0.0 
3
total: 898 i: 151 x: 314.69164443212213 y: 18.085791266213807 E: -0.0030348456115875553
Li -2.826838115458454 -1.2518143661925751 0.0 
H -4.8168903250206965 2.5036287323851507 0.0 
H 7.643728440479151 -1.2518143661925751 0.0 
3
total: 898 i: 152 x: 315.36313491657575 y: 18.87302066995021 E: 0.00012097680581482821
Li -2.7138470464402147 -1.2934033678974919 0.0 
H -4.755666941501581 2.5868067357949833 0.0 
H 7.469513987941795 -1.2934033678974919 0.0 
3
total: 898 i: 153 x: 316.08771378441514 y: 19.710581881220147 E: 0.004818377047711125
Li -2.591800600596809 -1.3349070335451734 0.0 
H -4.682875851333103 2.669814067090347 0.0 
H 7.274676451929912 -1.3349070335451734 0.0 
3
total: 898 i: 154 x: 316.85271988952326 y: 20.580416199639455 E: 0.009813013597367349
Li -2.4612043987241012 -1.3735627050129884 0.0 
H -4.594908280847115 2.747125410025977 0.0 
H 7.056112679571216 -1.3735627050129884 0.0 
3
total: 898 i: 155 x: 317.6419609431886 y: 21.460715147863507 E: 0.013798882917973591
Li -2.3231177887458236 -1.4061220355045627 0.0 
H -4.488333728052703 2.8122440710091254 0.0 
H 6.811451516798526 -1.4061220355045627 0.0 
3
total: 898 i: 156 x: 318.43082110497886 y: 22.320898295719367 E: 0.015562364169660522
Li -2.1801850584374294 -1.4289321372289354 0.0 
H -4.361295065778135 2.857864274457871 0.0 
H 6.541480124215566 -1.4289321372289354 0.0 
3
total: 898 i: 157 x: 318.76509301340366 y: 22.67858640920317 E: 0.01538097907513785
Li -2.1177191621087945 -1.4349367623449787 0.0 
H -4.299967803291283 2.8698735246899574 0.0 
H 6.417686965400078 -1.4349367623449787 0.0 
3
total: 898 i: 158 x: 319.1321863852751 y: 23.066041436863973 E: 0.014380905559929106
Li -2.0475518284252616 -1.4385282774530614 0.0 
H -4.226630111444231 2.8770565549061233 0.0 
H 6.274181939869493 -1.4385282774530614 0.0 
3
total: 898 i: 159 x: 319.70792028158684 y: 23.660588248867437 E: 0.010746845483522633
Li -1.933626516485716 -1.4367113853748477 0.0 
H -4.097134206266709 2.8734227707496958 0.0 
H 6.030760722752425 -1.4367113853748477 0.0 
3
total: 898 i: 160 x: 320.22838081117294 y: 24.18111437714737 E: 0.004731623334414388
Li -1.8257980797149571 -1.4256167800367836 0.0 
H -3.9623131137667325 2.8512335600735677 0.0 
H 5.788111193481689 -1.4256167800367836 0.0 
3
total: 898 i: 161 x: 320.7294624265249 y: 24.662698533766914 E: -0.004099963816505376
Li -1.7169712755910416 -1.4046735887589827 0.0 
H -3.814090646686732 2.8093471775179655 0.0 
H 5.5310619222777735 -1.4046735887589827 0.0 
3
total: 898 i: 162 x: 321.16395170753646 y: 25.060894044863286 E: -0.014363309223139737
Li -1.6185882039301553 -1.3773197676759974 0.0 
H -3.6700348105744336 2.754639535351995 0.0 
H 5.288623014504589 -1.3773197676759974 0.0 
3
total: 898 i: 163 x: 321.5083656016031 y: 25.362104061316664 E: -0.023826339500496282
Li -1.5385959669268818 -1.349625140906938 0.0 
H -3.546602881958557 2.6992502818138755 0.0 
H 5.0851988488854385 -1.349625140906938 0.0 
3
total: 898 i: 164 x: 321.7627757981848 y: 25.576702307651566 E: -0.03099364238576484
Li -1.4791433462283328 -1.3263530734911526 0.0 
H -3.451801137555165 2.6527061469823057 0.0 
H 4.930944483783498 -1.3263530734911526 0.0 
3
total: 898 i: 165 x: 322.03881233157216 y: 25.803476182517972 E: -0.03821973367277446
Li -1.415346389735852 -1.2994622308100685 0.0 
H -3.3478727878297656 2.598924461620137 0.0 
H 4.763219177565618 -1.2994622308100685 0.0 
3
total: 898 i: 166 x: 322.24736350574545 y: 25.97202401010324 E: -0.04291118949294749
Li -1.3684507164768762 -1.278909840566541 0.0 
H -3.2705616427439352 2.557819681133082 0.0 
H 4.6390123592208115 -1.278909840566541 0.0 
3
total: 898 i: 167 x: 322.4647245357291 y: 26.146419215232967 E: -0.04683226493174558
Li -1.321526072238857 -1.2581489358974052 0.0 
H -3.1929736874579238 2.5162978717948103 0.0 
H 4.514499759696781 -1.2581489358974052 0.0 
3
total: 898 i: 168 x: 322.65067125266995 y: 26.295407940229325 E: -0.049285886966302796
Li -1.283391162798301 -1.2414630051191446 0.0 
H -3.130139102382299 2.4829260102382893 0.0 
H 4.4135302651806 -1.2414630051191446 0.0 
3
total: 898 i: 169 x: 322.860719574897 y: 26.464414773637376 E: -0.051028258489278
Li -1.2427824341816391 -1.2242077409044247 0.0 
H -3.0638044691596473 2.4484154818088495 0.0 
H 4.3065869033412865 -1.2242077409044247 0.0 
3
total: 898 i: 170 x: 323.11229686422087 y: 26.66908576321959 E: -0.05179723387678799
Li -1.197614926769682 -1.206036579702568 0.0 
H -2.991103080668447 2.4120731594051357 0.0 
H 4.188718007438129 -1.206036579702568 0.0 
3
total: 898 i: 171 x: 323.60482821283244 y: 27.080410124692424 E: -0.0501549582354254
Li -1.1191713093266087 -1.1782964366493116 0.0 
H -2.868587280976216 2.3565928732986228 0.0 
H 3.9877585903028248 -1.1782964366493116 0.0 
3
total: 898 i: 172 x: 324.08345256090115 y: 27.495664116678423 E: -0.04612940652795473
Li -1.0533269423839096 -1.1600003498634837 0.0 
H -2.77018059018467 2.3200006997269673 0.0 
H 3.8235075325685797 -1.1600003498634837 0.0 
3
total: 898 i: 173 x: 324.5256400886424 y: 27.892989187721792 E: -0.04134326616531392
Li -0.9994280506636736 -1.1491274464911143 0.0 
H -2.6927638638032785 2.2982548929822286 0.0 
H 3.6921919144669517 -1.1491274464911143 0.0 
3
total: 898 i: 174 x: 324.82203588868 y: 28.166437718717876 E: -0.03781057055118929
Li -0.9662436136737637 -1.144467243592598 0.0 
H -2.6463897300458226 2.2889344871851964 0.0 
H 3.612633343719586 -1.144467243592598 0.0 
3
total: 898 i: 175 x: 325.1475741421242 y: 28.473231166006784 E: -0.03370753291458389
Li -0.9320417845135438 -1.1413970477293651 0.0 
H -2.599457751465173 2.28279409545873 0.0 
H 3.5314995359787167 -1.1413970477293651 0.0 
3
total: 898 i: 176 x: 325.60187622618537 y: 28.91272847419273 E: -0.027591891261315036
Li -0.8876109597264316 -1.1401983589804348 0.0 
H -2.5394340916748797 2.28039671796087 0.0 
H 3.427045051401311 -1.1401983589804348 0.0 
3
total: 898 i: 177 x: 326.07364528211343 y: 29.38377078522341 E: -0.02063667231336132
Li -0.8448716738608378 -1.1422574896496007 0.0 
H -2.482089806044638 2.2845149792992014 0.0 
H 3.326961479905476 -1.1422574896496007 0.0 
3
total: 898 i: 178 x: 326.5873462355522 y: 29.9156749446495 E: -0.01206897367528374
Li -0.8016481792644222 -1.1479286086010407 0.0 
H -2.423504983583737 2.295857217202082 0.0 
H 3.2251531628481596 -1.1479286086010407 0.0 
3
total: 898 i: 179 x: 327.19446661879863 y: 30.575955364737382 E: 1.8625244775797815e-05
Li -0.7544397370722867 -1.1590752990187885 0.0 
H -2.3569102264272845 2.318150598037577 0.0 
H 3.1113499634995714 -1.1590752990187885 0.0 
3
total: 898 i: 180 x: 327.74502250716455 y: 31.216520651855394 E: 0.013684295708902474
Li -0.7150064105409569 -1.1737294071126434 0.0 
H -2.2962829377712897 2.347458814225287 0.0 
H 3.0112893483122463 -1.1737294071126434 0.0 
3
total: 898 i: 181 x: 328.12376939659316 y: 31.693276192016306 E: 0.025239160810967887
Li -0.6898073152450298 -1.1869915810804224 0.0 
H -2.2524721359475572 2.3739831621608447 0.0 
H 2.9422794511925874 -1.1869915810804224 0.0 
3
total: 898 i: 182 x: 328.4953688542131 y: 32.21047047316499 E: 0.03904128163455444
Li -0.6668973389854284 -1.2037392036216046 0.0 
H -2.205243767462269 2.407478407243209 0.0 
H 2.872141106447698 -1.2037392036216046 0.0 
3
total: 898 i: 183 x: 328.81842749613577 y: 32.740189236576626 E: 0.054095334836702404
Li -0.6490889820801461 -1.2237260654653894 0.0 
H -2.156207683733662 2.4474521309307784 0.0 
H 2.805296665813808 -1.2237260654653894 0.0 
3
total: 898 i: 184 x: 329.1053227008642 y: 33.426278719727904 E: 0.0728497700370381
Li -0.6374040960710566 -1.2549039447709889 0.0 
H -2.089700711520859 2.509807889541978 0.0 
H 2.7271048075919153 -1.2549039447709889 0.0 
3
total: 898 i: 185 x: 329.1637305616625 y: 33.89002453365862 E: 0.08212880052556157
Li -0.6401881792368633 -1.2805980198953217 0.0 
H -2.0411096372763593 2.5611960397906435 0.0 
H 2.6812978165132226 -1.2805980198953217 0.0 
3
total: 898 i: 186 x: 329.09094778445854 y: 34.23416897012734 E: 0.08461528929378791
Li -0.6508801147593537 -1.303167804836744 0.0 
H -2.001894964277654 2.606335609673488 0.0 
H 2.6527750790370073 -1.303167804836744 0.0 
3
total: 898 i: 187 x: 328.9994262189689 y: 34.407194284816256 E: 0.0835134221908346
Li -0.6602199841756788 -1.3160574023428768 0.0 
H -1.9807325487782679 2.632114804685753 0.0 
H 2.6409525329539467 -1.3160574023428768 0.0 
3
total: 898 i: 188 x: 328.8690531064052 y: 34.5685102305665 E: 0.08050412500857208
Li -0.6721291355662244 -1.3292813981507507 0.0 
H -1.959858758779169 2.658562796301502 0.0 
H 2.6319878943453934 -1.3292813981507507 0.0 
3
total: 898 i: 189 x: 328.71193339125347 y: 34.7077022508481 E: 0.07596893773984409
Li -0.6855499012588998 -1.3418489979590484 0.0 
H -1.940752030475093 2.683697995918097 0.0 
H 2.6263019317339924 -1.3418489979590484 0.0 
3
total: 898 i: 190 x: 328.41382935901936 y: 34.89503018272974 E: 0.06627079856677175
Li -0.7096792287211606 -1.3609356769020557 0.0 
H -1.9129963194636799 2.7218713538041115 0.0 
H 2.6226755481848407 -1.3609356769020557 0.0 
3
total: 898 i: 191 x: 328.07824923391945 y: 35.044696064885095 E: 0.05480063490383202
Li -0.7357537148645754 -1.3785495730004822 0.0 
H -1.888630450082638 2.7570991460009644 0.0 
H 2.6243841649472133 -1.3785495730004822 0.0 
3
total: 898 i: 192 x: 327.52521136417744 y: 35.21980768576097 E: 0.036074047697682084
Li -0.7774480616848197 -1.4029148783010672 0.0 
H -1.856719628434083 2.805829756602134 0.0 
H 2.634167690118903 -1.4029148783010672 0.0 
3
total: 898 i: 193 x: 326.74775221337035 y: 35.38759531161431 E: 0.011622840323174555
Li -0.8347346642690568 -1.4318434209067643 0.0 
H -1.8212373172925784 2.8636868418135286 0.0 
H 2.6559719815616356 -1.4318434209067643 0.0 
3
total: 898 i: 194 x: 325.7061693121005 y: 35.539822539632446 E: -0.016443956558245782
Li -0.9105005240202174 -1.465336945356884 0.0 
H -1.7829093823262854 2.930673890713768 0.0 
H 2.693409906346503 -1.465336945356884 0.0 
3
total: 898 i: 195 x: 324.829898556829 y: 35.63341792730417 E: -0.03562616375267861
Li -0.9740415071807949 -1.49076347493167 0.0 
H -1.755390348011295 2.9815269498633397 0.0 
H 2.72943185519209 -1.49076347493167 0.0 
3
total: 898 i: 196 x: 323.916111230326 y: 35.712232122337085 E: -0.05166670248519267
Li -1.040473462575483 -1.51554577266004 0.0 
H -1.7295208801713047 3.0310915453200797 0.0 
H 2.769994342746787 -1.51554577266004 0.0 
3
total: 898 i: 197 x: 322.9569099998232 y: 35.7836973761718 E: -0.06502236135143
Li -1.1106387578595696 -1.5402120347260013 0.0 
H -1.7042524073723737 3.080424069452003 0.0 
H 2.814891165231943 -1.5402120347260013 0.0 
3
total: 898 i: 198 x: 321.7223693319778 y: 35.869416382540415 E: -0.07714675021670246
Li -1.2018643205735622 -1.5704671698923478 0.0 
H -1.67304190977618 3.140934339784695 0.0 
H 2.874906230349742 -1.5704671698923478 0.0 
3
total: 898 i: 199 x: 320.2679010258458 y: 35.97185521795946 E: -0.08379982391824783
Li -1.3108708306188708 -1.6043728587887607 0.0 
H -1.6365347756071666 3.2087457175775214 0.0 
H 2.947405606226037 -1.6043728587887607 0.0 
3
total: 898 i: 200 x: 318.2767923426711 y: 36.125472926625896 E: -0.08129985601325417
Li -1.4627452218257535 -1.6479303267484806 0.0 
H -1.585126152745129 3.2958606534969617 0.0 
H 3.0478713745708825 -1.6479303267484806 0.0 
3
total: 898 i: 201 x: 316.0270833694845 y: 36.32363882632592 E: -0.06800846990115565
Li -1.6373615319604975 -1.6928214752450754 0.0 
H -1.5236945469139644 3.3856429504901504 0.0 
H 3.161056078874463 -1.6928214752450754 0.0 
3
total: 898 i: 202 x: 313.44733960823453 y: 36.58190511304178 E: -0.047162808697062
Li -1.8397745418021463 -1.7376429655365613 0.0 
H -1.4485352389476238 3.475285931073123 0.0 
H 3.2883097807497697 -1.7376429655365613 0.0 
3
total: 898 i: 203 x: 310.82491473348455 y: 36.86991579145295 E: -0.025778471723199213
Li -2.045221332370285 -1.7746463073587178 0.0 
H -1.3680362972954283 3.5492926147174355 0.0 
H 3.413257629665713 -1.7746463073587178 0.0 
3
total: 898 i: 204 x: 307.95554116894436 y: 37.199654305243996 E: -0.005368702677371304
Li -2.26600981701402 -1.8040737345994395 0.0 
H -1.2777106322851228 3.6081474691988786 0.0 
H 3.5437204492991428 -1.8040737345994395 0.0 
3
total: 898 i: 205 x: 304.62380634959516 y: 37.580446975333174 E: 0.013397918227880331
Li -2.5123674793634545 -1.8231179645327622 0.0 
H -1.1739452397139376 3.646235929065525 0.0 
H 3.6863127190773928 -1.8231179645327622 0.0 
3
total: 898 i: 206 x: 301.4246116734292 y: 37.92550558840835 E: 0.0269904157586278
Li -2.7348503140522333 -1.8265922827088217 0.0 
H -1.0792321662117372 3.653184565417644 0.0 
H 3.8140824802639703 -1.8265922827088217 0.0 
3
total: 898 i: 207 x: 297.8983964303372 y: 38.26747485465521 E: 0.037900969525526046
Li -2.961053644779733 -1.8152287079647162 0.0 
H -0.9835650643333156 3.630457415929432 0.0 
H 3.944618709113047 -1.8152287079647162 0.0 
3
total: 898 i: 208 x: 292.88807036491306 y: 38.66318040565511 E: 0.04735024601305123
Li -3.2454593248571215 -1.7762899499894589 0.0 
H -0.8671662603625561 3.5525798999789178 0.0 
H 4.1126255852196785 -1.7762899499894589 0.0 
3
total: 898 i: 209 x: 289.02168461359855 y: 38.88535591519381 E: 0.050920581933728615
Li -3.435493835110003 -1.7320868558513096 0.0 
H -0.7942018077038484 3.4641737117026192 0.0 
H 4.22969564281385 -1.7320868558513096 0.0 
3
total: 898 i: 210 x: 284.8439139251399 y: 39.03954062308657 E: 0.05210331991540384
Li -3.614021254467555 -1.674332253103411 0.0 
H -0.7313586859986794 3.3486645062068225 0.0 
H 4.345379940466234 -1.674332253103411 0.0 
3
total: 898 i: 211 x: 279.8431050181904 y: 39.1071530338874 E: 0.05078094597114232
Li -3.7949839847706563 -1.595797750835805 0.0 
H -0.6758765954297163 3.1915955016716095 0.0 
H 4.470860580200373 -1.595797750835805 0.0 
3
total: 898 i: 212 x: 272.7344788844806 y: 38.99256603422282 E: 0.045144317925457735
Li -4.00027079981119 -1.4737592166090188 0.0 
H -0.6280289560911201 2.947518433218037 0.0 
H 4.62829975590231 -1.4737592166090188 0.0 
3
total: 898 i: 213 x: 263.75586927844824 y: 38.520123594756186 E: 0.03357519279254405
Li -4.190550606617386 -1.3122017303210758 0.0 
H -0.6075541578437984 2.624403460642151 0.0 
H 4.7981047644611845 -1.3122017303210758 0.0 
3
total: 898 i: 214 x: 255.26713948607892 y: 37.77070971724671 E: 0.01968712166707871
Li -4.3169305725723905 -1.158687424594067 0.0 
H -0.6178402470914386 2.317374849188134 0.0 
H 4.934770819663829 -1.158687424594067 0.0 
3
total: 898 i: 215 x: 246.28885756450182 y: 36.70256436325235 E: 0.003839397658927476
Li -4.408874751512333 -0.9994920549022877 0.0 
H -0.6506535140580083 1.9989841098045753 0.0 
H 5.05952826557034 -0.9994920549022877 0.0 
3
total: 898 i: 216 x: 237.30065371017906 y: 35.41486561528404 E: -0.010466633330902779
Li -4.469754696829624 -0.8454116512620425 0.0 
H -0.6985282598526275 1.6908233025240853 0.0 
H 5.16828295668225 -0.8454116512620425 0.0 
3
total: 898 i: 217 x: 229.47140345996834 y: 34.19478816106289 E: -0.01894975044105741
Li -4.505297635260566 -0.7163767662243975 0.0 
H -0.7467207419400892 1.4327535324487948 0.0 
H 5.2520183772006535 -0.7163767662243975 0.0 
3
total: 898 i: 218 x: 222.3691376147964 y: 33.0953748812745 E: -0.021694204592568204
Li -4.528992295217991 -0.6038665231989403 0.0 
H -0.7907747422088147 1.2077330463978808 0.0 
H 5.319767037426805 -0.6038665231989403 0.0 
3
total: 898 i: 219 x: 214.70499958631999 y: 32.03081488567583 E: -0.019117009228004026
Li -4.550996758473974 -0.4874239143085766 0.0 
H -0.8328210344299558 0.9748478286171534 0.0 
H 5.383817792903929 -0.4874239143085766 0.0 
3
total: 898 i: 220 x: 205.74319683668872 y: 31.12422439519124 E: -0.01203666711783168
Li -4.579559518060794 -0.3573612220055625 0.0 
H -0.8658190373780736 0.7147224440111251 0.0 
H 5.445378555438868 -0.3573612220055625 0.0 
3
total: 898 i: 221 x: 197.30399411349734 y: 30.773640709493904 E: -0.007526502107824753
Li -4.616019173806913 -0.239427863520032 0.0 
H -0.8723936748944401 0.47885572704006407 0.0 
H 5.488412848701353 -0.239427863520032 0.0 
3
total: 898 i: 222 x: 189.6528373195445 y: 30.967846769303613 E: -0.00913721563873142
Li -4.66068830586625 -0.13418251880494697 0.0 
H -0.8532953303049386 0.26836503760989394 0.0 
H 5.513983636171188 -0.13418251880494697 0.0 
3
total: 898 i: 223 x: 182.7269627540015 y: 31.58590256970708 E: -0.014687986833143752
Li -4.712062061196339 -0.03830424322276044 0.0 
H -0.814373712287848 0.07660848644552087 0.0 
H 5.526435773484189 -0.03830424322276044 0.0 
3
total: 898 i: 224 x: 184.4650563418832 y: 32.5104172458674 E: -0.02025759331180162
Li -4.767937954122863 -0.06361857551116086 0.0 
H -0.7613939352647048 0.1272371510223217 0.0 
H 5.529331889387566 -0.06361857551116086 0.0 
3
total: 898 i: 225 x: 190.9215728014031 y: 33.63276042783457 E: -0.02279546071371289
Li -4.8254957383885815 -0.15819445574501406 0.0 
H -0.6997176700952323 0.3163889114900281 0.0 
H 5.525213408483812 -0.15819445574501406 0.0 
3
total: 898 i: 226 x: 197.34125456645373 y: 34.86607989117591 E: -0.021010912187073977
Li -4.882345081409492 -0.2556477099236228 0.0 
H -0.6334506594479166 0.5112954198472455 0.0 
H 5.515795740857407 -0.2556477099236228 0.0 
3
total: 898 i: 227 x: 203.82610259656386 y: 36.156070635078244 E: -0.014925432184684841
Li -4.936923612985954 -0.35777358787678143 0.0 
H -0.5648875960587505 0.715547175753563 0.0 
H 5.501811209044703 -0.35777358787678143 0.0 
3
total: 898 i: 228 x: 210.50756544849418 y: 37.46375121450008 E: -0.0051902307647631145
Li -4.987617600354516 -0.4669588642542612 0.0 
H -0.4954366687792344 0.9339177285085223 0.0 
H 5.48305426913375 -0.4669588642542612 0.0 
3
total: 898 i: 229 x: 217.54116296559326 y: 38.76479722864195 E: 0.007381586688438509
Li -5.032580161230893 -0.5863213067367158 0.0 
H -0.4256030235067376 1.1726426134734318 0.0 
H 5.458183184737631 -0.5863213067367158 0.0 
3
total: 898 i: 230 x: 224.84195339919341 y: 40.00047372014902 E: 0.021520022219546003
Li -5.067966686249474 -0.7151502154628028 0.0 
H -0.35761878644633427 1.4303004309256058 0.0 
H 5.425585472695809 -0.7151502154628028 0.0 
3
total: 898 i: 231 x: 232.32598516444324 y: 41.13060079738458 E: 0.03605427177616506
Li -5.090067897872858 -0.8526213712279715 0.0 
H -0.29277772628685916 1.705242742455943 0.0 
H 5.382845624159717 -0.8526213712279715 0.0 
3
total: 898 i: 232 x: 239.99442134095818 y: 42.14154351728523 E: 0.050231072845962205
Li -5.095068327353876 -0.9993370602387096 0.0 
H -0.23105710879495867 1.998674120477419 0.0 
H 5.326125436148836 -0.9993370602387096 0.0 
3
total: 898 i: 233 x: 248.01130267860458 y: 43.03989928679655 E: 0.06376296763724926
Li -5.077106055753404 -1.1590451833253221 0.0 
H -0.1713144846196366 2.3180903666506447 0.0 
H 5.248420540373042 -1.1590451833253221 0.0 
3
total: 898 i: 234 x: 254.82012533916986 y: 43.67429023440465 E: 0.07396493656884508
Li -5.038710767643235 -1.299387878082475 0.0 
H -0.12469775524809101 2.59877575616495 0.0 
H 5.163408522891326 -1.299387878082475 0.0 
3
total: 898 i: 235 x: 259.7416559723096 y: 44.055633961634314 E: 0.08054098896246185
Li -4.994463727056565 -1.4030104776217396 0.0 
H -0.09403604730316584 2.806020955243479 0.0 
H 5.0884997743597316 -1.4030104776217396 0.0 
3
total: 898 i: 236 x: 264.05436916987065 y: 44.3318190131811 E: 0.08569443497582471
Li -4.9417001691278415 -1.4947551853030276 0.0 
H -0.0701169211748125 2.9895103706060553 0.0 
H 5.011817090302655 -1.4947551853030276 0.0 
3
total: 898 i: 237 x: 268.5282491049632 y: 44.5558796356218 E: 0.09032409665822677
Li -4.870222471703843 -1.590059065030714 0.0 
H -0.04932071802911153 3.1801181300614276 0.0 
H 4.919543189732955 -1.590059065030714 0.0 
3
total: 898 i: 238 x: 273.50743472862996 y: 44.72400987996576 E: 0.09444583621730476
Li -4.766137831012588 -1.694784317852987 0.0 
H -0.03271696585596917 3.3895686357059747 0.0 
H 4.798854796868558 -1.694784317852987 0.0 
3
total: 898 i: 239 x: 278.28157960438546 y: 44.79837908744745 E: 0.09715750524159612
Li -4.636248909258103 -1.7915042417357119 0.0 
H -0.025482995822356358 3.5830084834714233 0.0 
H 4.661731905080457 -1.7915042417357119 0.0 
3
total: 898 i: 240 x: 282.8427998325341 y: 44.78452690811626 E: 0.09830382897019366
Li -4.477818652489037 -1.8771717532274623 0.0 
H -0.028963116983158343 3.7543435064549247 0.0 
H 4.506781769472194 -1.8771717532274623 0.0 
3
total: 898 i: 241 x: 287.719511768275 y: 44.67396048690887 E: 0.0973471417258901
Li -4.262071611712219 -1.9558658592652918 0.0 
H -0.04673842073898005 3.911731718530583 0.0 
H 4.3088100324512 -1.9558658592652918 0.0 
3
total: 898 i: 242 x: 291.69645356313714 y: 44.51189605178832 E: 0.09400405826637437
Li -4.0427523158390635 -2.004102397839358 0.0 
H -0.07350607496171291 4.008204795678715 0.0 
H 4.116258390800777 -2.004102397839358 0.0 
3
total: 898 i: 243 x: 292.8443299677047 y: 44.45426155782102 E: 0.0924150881071808
Li -3.9711759774273663 -2.014353133036017 0.0 
H -0.08328849188943899 4.028706266072033 0.0 
H 4.054464469316805 -2.014353133036017 0.0 
3
total: 898 i: 244 x: 293.8873106887104 y: 44.39828697617504 E: 0.09065669526336782
Li -3.9027082693110295 -2.021951649166303 0.0 
H -0.09290775151248454 4.043903298332607 0.0 
H 3.995616020823514 -2.021951649166303 0.0 
3
total: 898 i: 245 x: 296.1944089692672 y: 44.26480652744973 E: 0.08545359214071642
Li -3.7392785407158655 -2.0321798137888822 0.0 
H -0.11626744307798242 4.064359627577765 0.0 
H 3.8555459837938475 -2.0321798137888822 0.0 
3
total: 898 i: 246 x: 299.51373453082743 y: 44.06337065339321 E: 0.0735990361567116
Li -3.475035568716906 -2.0282387092451155 0.0 
H -0.15245480273208178 4.05647741849023 0.0 
H 3.6274903714489866 -2.0282387092451155 0.0 
3
total: 898 i: 247 x: 301.80834204007965 y: 43.93450085717354 E: 0.0611440499635946
Li -3.2737999137905867 -2.0107488911410587 0.0 
H -0.1760855578893512 4.021497782282118 0.0 
H 3.449885471679938 -2.0107488911410587 0.0 
3
total: 898 i: 248 x: 303.6610930439836 y: 43.849294219042534 E: 0.04778181065022114
Li -3.1023363397264787 -1.987209508579417 0.0 
H -0.1919035678077985 3.9744190171588345 0.0 
H 3.294239907534276 -1.987209508579417 0.0 
3
total: 898 i: 249 x: 305.2018558210256 y: 43.79906187706455 E: 0.033932207484219754
Li -2.9552838703154314 -1.961185619846247 0.0 
H -0.20134555475163074 3.9223712396924943 0.0 
H 3.1566294250670617 -1.961185619846247 0.0 
3
total: 898 i: 250 x: 306.86784385695915 y: 43.77462326334179 E: 0.015311366065667286
Li -2.793664307653659 -1.9266625437309626 0.0 
H -0.20614649532471363 3.8533250874619247 0.0 
H 2.999810802978373 -1.9266625437309626 0.0 
3
total: 898 i: 251 x: 308.49269273645285 y: 43.79078532590486 E: -0.00737115274832417
Li -2.635618068112946 -1.8870053074533593 0.0 
H -0.20364956859334304 3.774010614906719 0.0 
H 2.8392676367062886 -1.8870053074533593 0.0 
3
total: 898 i: 252 x: 309.932646046119 y: 43.84690140632949 E: -0.031848857525327526
Li -2.4969493540404137 -1.8472365781005073 0.0 
H -0.19403456524690998 3.6944731562010142 0.0 
H 2.6909839192873237 -1.8472365781005073 0.0 
3
total: 898 i: 253 x: 311.22798173918596 y: 43.93817906071137 E: -0.057612344359030176
Li -2.3743808056671374 -1.807792850270733 0.0 
H -0.1782644011103911 3.615585700541466 0.0 
H 2.552645206777529 -1.807792850270733 0.0 
3
total: 898 i: 254 x: 312.28604619554056 y: 44.04714121840926 E: -0.0811296550297483
Li -2.2762095567975718 -1.7727618466112383 0.0 
H -0.15946490232582944 3.545523693222477 0.0 
H 2.4356744591234016 -1.7727618466112383 0.0 
3
total: 898 i: 255 x: 313.0727526747139 y: 44.15235110342164 E: -0.09980505622915237
Li -2.2044059540236423 -1.7447452267834944 0.0 
H -0.14138377574058447 3.4894904535669893 0.0 
H 2.345789729764227 -1.7447452267834944 0.0 
3
total: 898 i: 256 x: 313.89902038633056 y: 44.29047400275469 E: -0.12018913592643932
Li -2.1299741546682798 -1.712963603206486 0.0 
H -0.11777976458856632 3.4259272064129727 0.0 
H 2.247753919256846 -1.712963603206486 0.0 
3
total: 898 i: 257 x: 314.9698683693738 y: 44.52760522267189 E: -0.1472292608964469
Li -2.0344338938794824 -1.666432658936824 0.0 
H -0.07768842275445675 3.3328653178736483 0.0 
H 2.112122316633939 -1.666432658936824 0.0 
3
total: 898 i: 258 x: 315.7955704481049 y: 44.78352020876603 E: -0.1685318797427962
Li -1.9603200906725753 -1.6233280939558636 0.0 
H -0.035188368138200365 3.2466561879117277 0.0 
H 1.9955084588107754 -1.6233280939558636 0.0 
3
total: 898 i: 259 x: 316.32675350382453 y: 45.012852602123466 E: -0.1833107323160619
Li -1.9111209777224039 -1.5889073355192898 0.0 
H 0.0020645965129584276 3.17781467103858 0.0 
H 1.9090563812094454 -1.5889073355192898 0.0 
3
total: 898 i: 260 x: 316.7730049575983 y: 45.29354062345428 E: -0.198767450997718
Li -1.8667618827757728 -1.5507334453385673 0.0 
H 0.04640200978082265 3.101466890677135 0.0 
H 1.82035987299495 -1.5507334453385673 0.0 
3
total: 898 i: 261 x: 317.15763574102783 y: 45.78328223433132 E: -0.22610505883045667
Li -1.818228780763251 -1.4917750686493785 0.0 
H 0.11999654993143127 2.9835501372987574 0.0 
H 1.6982322308318194 -1.4917750686493785 0.0 
3
total: 898 i: 262 x: 317.1635705132914 y: 46.412132494394996 E: -0.2729384992520562
Li -1.7894112369211956 -1.4261537055331035 0.0 
H 0.2069574843161639 2.8523074110662074 0.0 
H 1.582453752605031 -1.4261537055331035 0.0 
3
total: 898 i: 263 x: 316.7313417407274 y: 47.18782091024141 E: -0.35736022058548395
Li -1.7819537532850616 -1.3558244652192801 0.0 
H 0.3027200512074151 2.7116489304385603 0.0 
H 1.4792337020776465 -1.3558244652192801 0.0 
3
total: 898 i: 264 x: 316.3329809859158 y: 47.656466632760335 E: -0.4228054946229507
Li -1.7856222493175071 -1.3174317065842733 0.0 
H 0.354874437566719 2.6348634131685467 0.0 
H 1.4307478117507877 -1.3174317065842733 0.0 
3
total: 898 i: 265 x: 315.3322546210124 y: 48.623751126003896 E: -0.587616900097892
Li -1.8028736310613187 -1.2453090925758865 0.0 
H 0.4505530893345031 2.4906181851517726 0.0 
H 1.352320541726816 -1.2453090925758865 0.0 
3
total: 898 i: 266 x: 313.7094502005107 y: 49.997275197802686 E: -0.8737923527491882
Li -1.8365328866384767 -1.1549353913658187 0.0 
H 0.5631378861874972 2.309870782731638 0.0 
H 1.2733950004509798 -1.1549353913658187 0.0 
3
total: 898 i: 267 x: 311.53910015387765 y: 51.73773829200005 E: -1.2916674982686327
Li -1.8812794307317935 -1.0546615219511082 0.0 
H 0.6752794026440934 2.109323043902217 0.0 
H 1.2060000280877001 -1.0546615219511082 0.0 
3
total: 898 i: 268 x: 309.3325070564973 y: 53.49164986945523 E: -1.7508811730633262
Li -1.9229969418337645 -0.965375696099969 0.0 
H 0.7623649834902426 1.9307513921999377 0.0 
H 1.160631958343522 -0.965375696099969 0.0 
3
total: 898 i: 269 x: 307.1832578153515 y: 55.213462226137544 E: -2.2276064624005643
Li -1.9592751978531595 -0.8865925054787326 0.0 
H 0.828900251663145 1.7731850109574654 0.0 
H 1.130374946190015 -0.8865925054787326 0.0 
3
total: 898 i: 270 x: 304.1849201959211 y: 57.646202715088 E: -2.919792108475682
Li -2.0028535287759532 -0.7870822651906694 0.0 
H 0.8992061062418859 1.574164530381339 0.0 
H 1.1036474225340682 -0.7870822651906694 0.0 
3
total: 898 i: 271 x: 300.3430713253324 y: 60.78248323147173 E: -3.7579338300130933
Li -2.0478202037619138 -0.6746034369059443 0.0 
H 0.9604697883268614 1.3492068738118888 0.0 
H 1.0873504154350528 -0.6746034369059443 0.0 
3
total: 898 i: 272 x: 298.0785598864525 y: 62.607158989274616 E: -4.176346584866048
Li -2.0693122336498413 -0.6156216756517585 0.0 
H 0.9849308661055138 1.231243351303517 0.0 
H 1.0843813675443283 -0.6156216756517585 0.0 
3
total: 898 i: 273 x: 296.2496315959988 y: 64.04828841404414 E: -4.4545451476868125
Li -2.084305256354477 -0.5718042265430189 0.0 
H 0.9996851911293905 1.143608453086038 0.0 
H 1.0846200652250864 -0.5718042265430189 0.0 
3
total: 898 i: 274 x: 293.972656785823 y: 65.78118498665322 E: -4.70332003658339
Li -2.1003565740544894 -0.5219120731243583 0.0 
H 1.0128983747476688 1.0438241462487166 0.0 
H 1.087458199306821 -0.5219120731243583 0.0 
3
total: 898 i: 275 x: 291.5279424451677 y: 67.54007919831679 E: -4.817217849185881
Li -2.114766776658527 -0.4739731740489023 0.0 
H 1.0218908899915466 0.9479463480978045 0.0 
H 1.09287588666698 -0.4739731740489023 0.0 
3
total: 898 i: 276 x: 288.2880054404625 y: 69.66252205985904 E: -4.684399461429455
Li -2.1300880195317036 -0.4191599299319549 0.0 
H 1.0273912198395951 0.8383198598639099 0.0 
H 1.1026967996921093 -0.4191599299319549 0.0 
3
total: 898 i: 277 x: 285.29674707906884 y: 71.37082483224354 E: -4.281589737318295
Li -2.14114300004336 -0.37697813268420594 0.0 
H 1.0276086776417208 0.753956265368412 0.0 
H 1.1135343224016392 -0.37697813268420594 0.0 
3
total: 898 i: 278 x: 281.80227233249514 y: 73.02820313894914 E: -3.5409506876571233
Li -2.151166996872798 -0.33718936404067734 0.0 
H 1.0235729282569226 0.6743787280813547 0.0 
H 1.1275940686158759 -0.33718936404067734 0.0 
3
total: 898 i: 279 x: 278.78090264643436 y: 74.15675988624875 E: -2.7667168960030653
Li -2.1579297159964876 -0.3102756926664778 0.0 
H 1.017211235434281 0.6205513853329556 0.0 
H 1.1407184805622061 -0.3102756926664778 0.0 
3
total: 898 i: 280 x: 276.1191583349061 y: 74.91685080008864 E: -2.080174856576613
Li -2.162784984367562 -0.29175732956185496 0.0 
H 1.0096892543911626 0.5835146591237099 0.0 
H 1.1530957299763989 -0.29175732956185496 0.0 
3
total: 898 i: 281 x: 274.0150128212079 y: 75.36342727334525 E: -1.5958935047768719
Li -2.1660533214734166 -0.28028093125347736 0.0 
H 1.0024677647724785 0.5605618625069548 0.0 
H 1.1635855567009377 -0.28028093125347736 0.0 
3
total: 898 i: 282 x: 272.5440438877452 y: 75.59441038031942 E: -1.3131753545829699
Li -2.1680944984134185 -0.2738241838568214 0.0 
H 0.9966907824060072 0.5476483677136428 0.0 
H 1.1714037160074104 -0.2738241838568214 0.0 
3
total: 898 i: 283 x: 271.0437239709195 y: 75.75995412261673 E: -1.0880710968065963
Li -2.1700016895500753 -0.26852353654812594 0.0 
H 0.9901020511672796 0.537047073096252 0.0 
H 1.1798996383827953 -0.26852353654812594 0.0 
3
total: 898 i: 284 x: 269.10252897176514 y: 75.86521800917686 E: -0.9119495748058413
Li -2.1722465837881915 -0.2635660472606967 0.0 
H 0.9803578872217562 0.5271320945213935 0.0 
H 1.1918886965664353 -0.2635660472606967 0.0 
3
total: 898 i: 285 x: 268.0330573362662 y: 75.86776981886175 E: -0.8781850016414686
Li -2.1733909882383027 -0.2617578003041605 0.0 
H 0.9742944856976936 0.523515600608321 0.0 
H 1.1990965025406095 -0.2617578003041605 0.0 
3
total: 898 i: 286 x: 267.03001367294945 y: 75.83181588919706 E: -0.8911167979096958
Li -2.174412157695632 -0.26067368116172224 0.0 
H 0.9680768266258188 0.5213473623234444 0.0 
H 1.206335331069813 -0.26067368116172224 0.0 
3
total: 898 i: 287 x: 265.89309124020895 y: 75.74277518757617 E: -0.9607882491520999
Li -2.1755147424997108 -0.26018906728449354 0.0 
H 0.9603070815589265 0.5203781345689871 0.0 
H 1.2152076609407834 -0.26018906728449354 0.0 
3
total: 898 i: 288 x: 264.1850061087938 y: 75.50111667131641 E: -1.1802535414912312
Li -2.1770746146012825 -0.26105552389034553 0.0 
H 0.9468722446092102 0.522111047780691 0.0 
H 1.2302023699920728 -0.26105552389034553 0.0 
3
total: 898 i: 289 x: 262.1330337422942 y: 75.0045629518125 E: -1.6305948734597273
Li -2.178817651451576 -0.2649872659343928 0.0 
H 0.9270050292102461 0.5299745318687856 0.0 
H 1.2518126222413293 -0.2649872659343928 0.0 
3
total: 898 i: 290 x: 260.06159086139985 y: 74.19750062648892 E: -2.2858733119243433
Li -2.1804572867122167 -0.27298987107487743 0.0 
H 0.9008218063427709 0.5459797421497548 0.0 
H 1.2796354803694459 -0.27298987107487743 0.0 
3
total: 898 i: 291 x: 258.14303653308843 y: 73.03770462092565 E: -3.0475670214105257
Li -2.1818892939691796 -0.2855278755033731 0.0 
H 0.8675434993319904 0.5710557510067462 0.0 
H 1.3143457946371897 -0.2855278755033731 0.0 
3
total: 898 i: 292 x: 256.48055707472065 y: 71.48726545875105 E: -3.783391405172729
Li -2.1830846865183093 -0.30283272909916664 0.0 
H 0.825887088564512 0.6056654581983334 0.0 
H 1.3571975979537974 -0.30283272909916664 0.0 
3
total: 898 i: 293 x: 255.15147980589285 y: 69.52803451213174 E: -4.361939735624182
Li -2.1840531180424305 -0.32482010039369497 0.0 
H 0.7746731275777523 0.64964020078739 0.0 
H 1.4093799904646782 -0.32482010039369497 0.0 
3
total: 898 i: 294 x: 254.2252017630866 y: 67.24176909999551 E: -4.683872810930293
Li -2.1848415321272787 -0.35027335270204235 0.0 
H 0.7149567357908562 0.7005467054040848 0.0 
H 1.4698847963364225 -0.35027335270204235 0.0 
3
total: 898 i: 295 x: 253.68851121284683 y: 64.71354972231134 E: -4.735206943963346
Li -2.1855989681152166 -0.3780454029557725 0.0 
H 0.6477309415059866 0.756090805911545 0.0 
H 1.5378680266092295 -0.3780454029557725 0.0 
3
total: 898 i: 296 x: 253.49631943776768 y: 61.81556948983355 E: -4.53928157119956
Li -2.1866414306953907 -0.4094437799708371 0.0 
H 0.5681148127497098 0.8188875599416743 0.0 
H 1.618526617945681 -0.4094437799708371 0.0 
3
total: 898 i: 297 x: 253.6250488502252 y: 59.03482867568179 E: -4.1991161340633765
Li -2.1881353676352546 -0.4392973953323614 0.0 
H 0.48833639152456776 0.8785947906647229 0.0 
H 1.6997989761106869 -0.4392973953323614 0.0 
3
total: 898 i: 298 x: 253.95362733326056 y: 56.542201140581284 E: -3.819775775197069
Li -2.190184123124266 -0.4660271532450854 0.0 
H 0.4133602089628967 0.9320543064901707 0.0 
H 1.776823914161369 -0.4660271532450854 0.0 
3
total: 898 i: 299 x: 254.4020753320023 y: 54.31000234266126 E: -3.4401540022825996
Li -2.1928768421380136 -0.4901321611671761 0.0 
H 0.3429048515438762 0.9802643223343523 0.0 
H 1.8499719905941374 -0.4901321611671761 0.0 
3
total: 898 i: 300 x: 254.91213947699853 y: 52.35026633389806 E: -3.0844433381487932
Li -2.19619446122424 -0.5116039264638229 0.0 
H 0.2780279568398747 1.0232078529276456 0.0 
H 1.9181665043843652 -0.5116039264638229 0.0 
3
total: 898 i: 301 x: 255.77077204906152 y: 49.72693708633464 E: -2.5888198329242944
Li -2.2026856518374047 -0.5411874273813978 0.0 
H 0.18593629768449338 1.0823748547627954 0.0 
H 2.016749354152911 -0.5411874273813978 0.0 
3
total: 898 i: 302 x: 256.86620300986544 y: 47.0809813885387 E: -2.0845273665997337
Li -2.2129566681612545 -0.57279480937113 0.0 
H 0.0856014033043846 1.1455896187422603 0.0 
H 2.1273552648568703 -0.57279480937113 0.0 
3
total: 898 i: 303 x: 258.1167008745667 y: 44.67361778296935 E: -1.6356186866869231
Li -2.227881637231578 -0.6044921219672136 0.0 
H -0.014076082633960318 1.208984243934427 0.0 
H 2.2419577198655385 -0.6044921219672136 0.0 
3
total: 898 i: 304 x: 259.4814491107884 y: 42.58907824824387 E: -1.2586951225881733
Li -2.248790123940982 -0.6364497253758207 0.0 
H -0.10921229182975711 1.2728994507516411 0.0 
H 2.35800241577074 -0.6364497253758207 0.0 
3
total: 898 i: 305 x: 260.949724889281 y: 40.85860478669967 E: -0.9526041463779875
Li -2.277908982721518 -0.669918182596283 0.0 
H -0.19750885027321896 1.339836365192566 0.0 
H 2.475417832994736 -0.669918182596283 0.0 
3
total: 898 i: 306 x: 262.55980472791805 y: 39.506892685569376 E: -0.7119973200278281
Li -2.320077637836865 -0.7077833475721711 0.0 
H -0.27713820183646254 1.4155666951443422 0.0 
H 2.597215839673327 -0.7077833475721711 0.0 
3
total: 898 i: 307 x: 264.1529525388195 y: 38.73091573135383 E: -0.5563819886418433
Li -2.3762004927868072 -0.7488749624582304 0.0 
H -0.33483210808572617 1.497749924916461 0.0 
H 2.711032600872534 -0.7488749624582304 0.0 
3
total: 898 i: 308 x: 265.6949387076214 y: 38.576892951415964 E: -0.4707997366375312
Li -2.450041039956347 -0.794726650794151 0.0 
H -0.36348896878733106 1.5894533015883021 0.0 
H 2.8135300087436774 -0.794726650794151 0.0 
3
total: 898 i: 309 x: 267.09438995649236 y: 39.07274318250372 E: -0.43549690689805387
Li -2.5417501204347555 -0.8440379640262425 0.0 
H -0.35479009092342784 1.688075928052485 0.0 
H 2.896540211358183 -0.8440379640262425 0.0 
3
total: 898 i: 310 x: 267.852563255828 y: 39.67451985485779 E: -0.4280673851851345
Li -2.6057692368759686 -0.8747034160694224 0.0 
H -0.3292345363123692 1.749406832138845 0.0 
H 2.935003773188338 -0.8747034160694224 0.0 
3
total: 898 i: 311 x: 268.52461517891504 y: 40.4733176039269 E: -0.42607738135050965
Li -2.674576349219741 -0.9045729668238455 0.0 
H -0.2883637129016017 1.8091459336476912 0.0 
H 2.9629400621213424 -0.9045729668238455 0.0 
3
total: 898 i: 312 x: 269.20663143104287 y: 41.63953674388666 E: -0.42784089828493055
Li -2.760924464835053 -0.9375792702201534 0.0 
H -0.22099604546958274 1.875158540440307 0.0 
H 2.981920510304635 -0.9375792702201534 0.0 
3
total: 898 i: 313 x: 269.8299861623033 y: 43.197483011194706 E: -0.4353003319655866
Li -2.8626303580856978 -0.9697716711389729 0.0 
H -0.12219734470869037 1.9395433422779456 0.0 
H 2.9848277027943877 -0.9697716711389729 0.0 
3
total: 898 i: 314 x: 270.186078355138 y: 44.44971808278853 E: -0.44645949991828954
Li -2.937049774827289 -0.9883680836714673 0.0 
H -0.03797493345410352 1.9767361673429344 0.0 
H 2.9750247082813925 -0.9883680836714673 0.0 
3
total: 898 i: 315 x: 270.4807414391806 y: 45.850945153813726 E: -0.46627642551087056
Li -3.0143717248676847 -1.0027947416178729 0.0 
H 0.05959283087563483 2.0055894832357453 0.0 
H 2.9547788939920503 -1.0027947416178729 0.0 
3
total: 898 i: 316 x: 270.71789277662884 y: 47.43391091266126 E: -0.5003723839737156
Li -3.0952443081725054 -1.0119553823268879 0.0 
H 0.17237893205466426 2.0239107646537757 0.0 
H 2.9228653761178407 -1.0119553823268879 0.0 
3
total: 898 i: 317 x: 270.8562800493082 y: 48.731561702968925 E: -0.5394115559785565
Li -3.1569302005825413 -1.0143909799113813 0.0 
H 0.2657956141470659 2.028781959822762 0.0 
H 2.891134586435475 -1.0143909799113813 0.0 
3
total: 898 i: 318 x: 270.961883345048 y: 50.103248858765205 E: -0.5932666266483133
Li -3.217973942811476 -1.012460967420026 0.0 
H 0.36462942308559354 2.0249219348400516 0.0 
H 2.853344519725883 -1.012460967420026 0.0 
3
total: 898 i: 319 x: 271.0770181607092 y: 52.47815522356397 E: -0.7220692618619743
Li -3.31438250773995 -0.999354360319144 0.0 
H 0.5340135724506632 1.9987087206382879 0.0 
H 2.780368935289287 -0.999354360319144 0.0 
3
total: 898 i: 320 x: 271.1684810959963 y: 55.90926752368568 E: -1.0033769632745702
Li -3.4352951055784584 -0.9618909926121062 0.0 
H 0.7703400795659561 1.9237819852242124 0.0 
H 2.664955026012503 -0.9618909926121062 0.0 
3
total: 898 i: 321 x: 271.25573496405354 y: 59.066022889065025 E: -1.3797860962601218
Li -3.5303185164919704 -0.9118165550747679 0.0 
H 0.9752747738791028 1.8236331101495358 0.0 
H 2.5550437426128676 -0.9118165550747679 0.0 
3
total: 898 i: 322 x: 271.400165484097 y: 61.90114474364227 E: -1.824685266383183
Li -3.6047351157892837 -0.8566949623617882 0.0 
H 1.147456340444398 1.7133899247235767 0.0 
H 2.4572787753448857 -0.8566949623617882 0.0 
3
total: 898 i: 323 x: 271.6655996715559 y: 64.7172555173493 E: -2.3677913261026906
Li -3.6701831097291104 -0.7941684304693944 0.0 
H 1.3068297525199655 1.5883368609387891 0.0 
H 2.3633533572091445 -0.7941684304693944 0.0 
3
total: 898 i: 324 x: 272.0272781884996 y: 67.03871249484921 E: -2.881705450192426
Li -3.7188125555232556 -0.7376727058469781 0.0 
H 1.4294771192478581 1.4753454116939562 0.0 
H 2.2893354362753975 -0.7376727058469781 0.0 
3
total: 898 i: 325 x: 272.36206139648425 y: 68.55587200177048 E: -3.2396727998651906
Li -3.7483640813783707 -0.6985979785876149 0.0 
H 1.5054592204892123 1.3971959571752297 0.0 
H 2.242904860889157 -0.6985979785876149 0.0 
3
total: 898 i: 326 x: 272.8789175285433 y: 70.30719587896502 E: -3.659655680570324
Li -3.7805666555122848 -0.6515351846033672 0.0 
H 1.5892022216810924 1.3030703692067345 0.0 
H 2.1913644338311915 -0.6515351846033672 0.0 
3
total: 898 i: 327 x: 273.68317224547445 y: 72.27041648314976 E: -4.11134833009138
Li -3.8145580227472387 -0.5964088884227942 0.0 
H 1.678258657685312 1.192817776845588 0.0 
H 2.1362993650619257 -0.5964088884227942 0.0 
3
total: 898 i: 328 x: 274.6279653020683 y: 73.93727242804884 E: -4.441458476226188
Li -3.8419612692707665 -0.5476886149386565 0.0 
H 1.7501649965552653 1.0953772298773132 0.0 
H 2.091796272715501 -0.5476886149386565 0.0 
3
total: 898 i: 329 x: 275.804252000994 y: 75.47086278668556 E: -4.651942577873778
Li -3.866264848281046 -0.5012956264289651 0.0 
H 1.8136903872719157 1.00259125285793 0.0 
H 2.052574461009129 -0.5012956264289651 0.0 
3
total: 898 i: 330 x: 277.18193996542414 y: 76.80913533014177 E: -4.705528846847942
Li -3.8870281354738494 -0.45952216168777854 0.0 
H 1.8675385323173548 0.9190443233755572 0.0 
H 2.019489603156495 -0.45952216168777854 0.0 
3
total: 898 i: 331 x: 278.76214080499153 y: 77.96340610560394 E: -4.596099396537267
Li -3.90488845431541 -0.42242832378074757 0.0 
H 1.913405248633394 0.8448566475614951 0.0 
H 1.991483205682016 -0.42242832378074757 0.0 
3
total: 898 i: 332 x: 280.5707300802277 y: 78.95977892498999 E: -4.329394242877358
Li -3.9205991325958323 -0.389478501235295 0.0 
H 1.9533701443025464 0.7789570024705899 0.0 
H 1.9672289882932859 -0.389478501235295 0.0 
3
total: 898 i: 333 x: 282.8501922271528 y: 79.88850547029361 E: -3.8752241611430494
Li -3.935979795950759 -0.3577654378079688 0.0 
H 1.9922467142500633 0.7155308756159375 0.0 
H 1.943733081700696 -0.3577654378079688 0.0 
3
total: 898 i: 334 x: 284.9760050027622 y: 80.52824008956705 E: -3.406704327404805
Li -3.947502755013378 -0.3351158475524891 0.0 
H 2.021404070025305 0.670231695104978 0.0 
H 1.926098684988073 -0.3351158475524891 0.0 
3
total: 898 i: 335 x: 286.3952375977082 y: 80.86501030712947 E: -3.0972473426033003
Li -3.9541597972296554 -0.32279111467985594 0.0 
H 2.0383825419119814 0.6455822293597118 0.0 
H 1.915777255317674 -0.32279111467985594 0.0 
3
total: 898 i: 336 x: 288.00800347959523 y: 81.17745634792396 E: -2.7667603476363367
Li -3.960982016062998 -0.31097254283086756 0.0 
H 2.0559958222199444 0.621945085661735 0.0 
H 1.904986193843055 -0.31097254283086756 0.0 
3
total: 898 i: 337 x: 289.8617168435432 y: 81.45947522801437 E: -2.431568722761918
Li -3.968076959087305 -0.299791157597631 0.0 
H 2.07468057259053 0.599582315195262 0.0 
H 1.8933963864967747 -0.299791157597631 0.0 
3
total: 898 i: 338 x: 292.5463579268807 y: 81.74706118973695 E: -2.0593201449050675
Li -3.977329494455244 -0.2873494177021543 0.0 
H 2.0999176896703506 0.5746988354043086 0.0 
H 1.8774118047848933 -0.2873494177021543 0.0 
3
total: 898 i: 339 x: 295.7884241880514 y: 81.93650944175326 E: -1.8214901037990883
Li -3.9874411835681207 -0.2771647073540664 0.0 
H 2.1291828405568247 0.5543294147081328 0.0 
H 1.8582583430112956 -0.2771647073540664 0.0 
3
total: 898 i: 340 x: 299.2740029742261 y: 81.97514571273047 E: -1.8399232020452567
Li -3.9975941848807275 -0.2711537256093763 0.0 
H 2.1610636167422803 0.5423074512187527 0.0 
H 1.8365305681384476 -0.2711537256093763 0.0 
3
total: 898 i: 341 x: 302.7340887624234 y: 81.85711452449716 E: -2.1219885011215243
Li -4.007422336760272 -0.2697105406580023 0.0 
H 2.1949619029996343 0.5394210813160047 0.0 
H 1.8124604337606378 -0.2697105406580023 0.0 
3
total: 898 i: 342 x: 305.3115115734607 y: 81.6676906186615 E: -2.4736610148409435
Li -4.014835770089838 -0.2714779907835945 0.0 
H 2.2227788068962333 0.5429559815671889 0.0 
H 1.7920569631936045 -0.2714779907835945 0.0 
3
total: 898 i: 343 x: 306.45712685542236 y: 81.55446659451526 E: -2.659543031691427
Li -4.018208100201822 -0.2730594240743565 0.0 
H 2.236097233857219 0.5461188481487131 0.0 
H 1.7821108663446026 -0.2730594240743565 0.0 
3
total: 898 i: 344 x: 307.46717893398943 y: 81.43914032178385 E: -2.834611604976604
Li -4.0212391405808425 -0.27487394723581443 0.0 
H 2.2484210257692014 0.549747894471629 0.0 
H 1.772818114811642 -0.27487394723581443 0.0 
3
total: 898 i: 345 x: 308.84616425130463 y: 81.25724393072845 E: -3.0854885095073663
Li -4.02548698222166 -0.2780097665841046 0.0 
H 2.26624335008455 0.5560195331682092 0.0 
H 1.7592436321371103 -0.2780097665841046 0.0 
3
total: 898 i: 346 x: 310.03554298357886 y: 81.07659989792401 E: -3.307717442071824
Li -4.029274942665113 -0.2813514292793226 0.0 
H 2.2826597098458317 0.5627028585586451 0.0 
H 1.7466152328192814 -0.2813514292793226 0.0 
3
total: 898 i: 347 x: 311.85766923749316 y: 80.75438133607844 E: -3.646497837032106
Li -4.035355872401268 -0.28768651865725536 0.0 
H 2.309978760946975 0.5753730373145107 0.0 
H 1.725377111454292 -0.28768651865725536 0.0 
3
total: 898 i: 348 x: 314.1910410583155 y: 80.25438113865486 E: -4.049813577477408
Li -4.043769600875993 -0.29813775562785266 0.0 
H 2.349515693050452 0.5962755112557052 0.0 
H 1.6942539078255399 -0.29813775562785266 0.0 
3
total: 898 i: 349 x: 316.61534566393647 y: 79.61912143097315 E: -4.391721205562612
Li -4.05349679547916 -0.3121231267293842 0.0 
H 2.397244029235222 0.6242462534587683 0.0 
H 1.656252766243938 -0.3121231267293842 0.0 
3
total: 898 i: 350 x: 318.92313568304166 y: 78.89137529992573 E: -4.6042651877198635
Li -4.0640000010130946 -0.3288254782146006 0.0 
H 2.450479284614681 0.6576509564292012 0.0 
H 1.6135207163984147 -0.3288254782146006 0.0 
3
total: 898 i: 351 x: 321.0737604810392 y: 78.09340733698349 E: -4.672483994850525
Li -4.075228307737972 -0.34779345033888287 0.0 
H 2.508476064512581 0.6955869006777657 0.0 
H 1.566752243225392 -0.34779345033888287 0.0 
3
total: 898 i: 352 x: 323.1122290883446 y: 77.2215807631331 E: -4.601536244745681
Li -4.087544115680625 -0.36918942058773635 0.0 
H 2.572429363035879 0.7383788411754726 0.0 
H 1.515114752644747 -0.36918942058773635 0.0 
3
total: 898 i: 353 x: 325.0792758797369 y: 76.26862947775368 E: -4.399793566861387
Li -4.101428519693773 -0.3933131469948621 0.0 
H 2.643928913388417 0.7866262939897242 0.0 
H 1.4574996063053556 -0.3933131469948621 0.0 
3
total: 898 i: 354 x: 326.986768697739 y: 75.2391295975278 E: -4.083005616243509
Li -4.117319444103635 -0.4202000482355248 0.0 
H 2.7239332918732764 0.8404000964710496 0.0 
H 1.3933861522303586 -0.4202000482355248 0.0 
3
total: 898 i: 355 x: 328.78394728971006 y: 74.17873419000946 E: -3.6880017327544694
Li -4.135115103163152 -0.4487619685227619 0.0 
H 2.810292163703597 0.8975239370455237 0.0 
H 1.3248229394595548 -0.4487619685227619 0.0 
3
total: 898 i: 356 x: 330.5139140717981 y: 73.08527892223057 E: -3.237622458184594
Li -4.15558324513978 -0.479092931655704 0.0 
H 2.9047048570210876 0.958185863311408 0.0 
H 1.2508783881186902 -0.479092931655704 0.0 
3
total: 898 i: 357 x: 332.266354562615 y: 71.92255666876775 E: -2.7370618197719865
Li -4.180630991032211 -0.5122141564151546 0.0 
H 3.0127493078112666 1.024428312830309 0.0 
H 1.167881683220945 -0.5122141564151546 0.0 
3
total: 898 i: 358 x: 334.0442530700808 y: 70.71365968555767 E: -2.218018771282819
Li -4.211800906573758 -0.5473297950931513 0.0 
H 3.1360997595695403 1.0946595901863025 0.0 
H 1.075701147004219 -0.5473297950931513 0.0 
3
total: 898 i: 359 x: 335.6894296976484 y: 69.60116894489354 E: -1.760151249502667
Li -4.2473065376594255 -0.5797426883008713 0.0 
H 3.263164150244565 1.1594853766017423 0.0 
H 0.9841423874148596 -0.5797426883008713 0.0 
3
total: 898 i: 360 x: 337.212918074613 y: 68.608931117377 E: -1.3784217225758535
Li -4.287389595277415 -0.607898595066611 0.0 
H 3.3920388288492678 1.2157971901332223 0.0 
H 0.8953507664281464 -0.607898595066611 0.0 
3
total: 898 i: 361 x: 338.7226439255801 y: 67.69500776143671 E: -1.0547408302142498
Li -4.335451490418557 -0.631826529528941 0.0 
H 3.529993944034727 1.2636530590578823 0.0 
H 0.8054575463838303 -0.631826529528941 0.0 
3
total: 898 i: 362 x: 340.23604210621534 y: 66.88179479896604 E: -0.7917137960498355
Li -4.393420015227759 -0.6491835057012331 0.0 
H 3.6774244033790193 1.2983670114024664 0.0 
H 0.71599561184874 -0.6491835057012331 0.0 
3
total: 898 i: 363 x: 341.61877946468155 y: 66.25550196916498 E: -0.6048137943180932
Li -4.455949732407552 -0.6567601828746829 0.0 
H 3.818390992545705 1.3135203657493655 0.0 
H 0.6375587398618467 -0.6567601828746829 0.0 
3
total: 898 i: 364 x: 343.30321769034407 y: 65.67163148690712 E: -0.43838087993411023
Li -4.5450492720624505 -0.6521728812447771 0.0 
H 3.9944833109770714 1.3043457624895543 0.0 
H 0.5505659610853799 -0.6521728812447771 0.0 
3
total: 898 i: 365 x: 344.8518907924349 y: 65.32586383011697 E: -0.333389533810739
Li -4.638948169854127 -0.632313982851843 0.0 
H 4.15551688734621 1.2646279657036859 0.0 
H 0.4834312825079161 -0.632313982851843 0.0 
3
total: 898 i: 366 x: 345.60850862469897 y: 65.22578074621568 E: -0.29527023920514994
Li -4.688493324892037 -0.6168334675865353 0.0 
H 4.232007200776585 1.233666935173071 0.0 
H 0.45648612411545386 -0.6168334675865353 0.0 
3
total: 898 i: 367 x: 346.36716681512365 y: 65.17075152872265 E: -0.2641340669758454
Li -4.7401928480881965 -0.5975265909273548 0.0 
H 4.306202929101787 1.1950531818547097 0.0 
H 0.43398991898640826 -0.5975265909273548 0.0 
3
total: 898 i: 368 x: 347.54061498910517 y: 65.17348989044308 E: -0.22771571073944327
Li -4.823283415649221 -0.5605470200175119 0.0 
H 4.414133975335971 1.1210940400350236 0.0 
H 0.40914944031325007 -0.5605470200175119 0.0 
3
total: 898 i: 369 x: 348.80679534449297 y: 65.29223162729954 E: -0.20170332086218026
Li -4.915645829042808 -0.5119352312607516 0.0 
H 4.518290925591189 1.0238704625215034 0.0 
H 0.3973549034516184 -0.5119352312607516 0.0 
3
total: 898 i: 370 x: 350.19863401691714 y: 65.55465485999405 E: -0.18663281594453604
Li -5.0181029506521915 -0.45005835944311773 0.0 
H 4.614143502109257 0.9001167188862353 0.0 
H 0.40395944854293386 -0.45005835944311773 0.0 
3
total: 898 i: 371 x: 351.66079377103114 y: 65.97078668920781 E: -0.18519071771876724
Li -5.124099228856402 -0.37849451164855424 0.0 
H 4.689954723030393 0.7569890232971084 0.0 
H 0.4341445058260076 -0.37849451164855424 0.0 
3
total: 898 i: 372 x: 352.8003131487588 y: 66.38971700271455 E: -0.19507045801624504
Li -5.203899167595725 -0.32027761828132717 0.0 
H 4.729466724523664 0.6405552365626543 0.0 
H 0.47443244307205923 -0.32027761828132717 0.0 
3
total: 898 i: 373 x: 353.57992876406365 y: 66.72216235267993 E: -0.2082817370239595
Li -5.256481179082615 -0.2801651946036639 0.0 
H 4.74614402617934 0.5603303892073279 0.0 
H 0.5103371529032739 -0.2801651946036639 0.0 
3
total: 898 i: 374 x: 354.4118734645928 y: 67.11670654971427 E: -0.22922352673012847
Li -5.310427028434067 -0.23776916065699158 0.0 
H 4.754534711368067 0.4755383213139831 0.0 
H 0.5558923170660002 -0.23776916065699158 0.0 
3
total: 898 i: 375 x: 355.26919651378734 y: 67.56501803239263 E: -0.259609314382766
Li -5.363393698414924 -0.1951160494838734 0.0 
H 4.753085341286811 0.3902320989677468 0.0 
H 0.6103083571281127 -0.1951160494838734 0.0 
3
total: 898 i: 376 x: 356.4700328179518 y: 68.26145136581336 E: -0.32088009284496294
Li -5.432666977443948 -0.13819879349864697 0.0 
H 4.734331648264232 0.2763975869972939 0.0 
H 0.6983353291797165 -0.13819879349864697 0.0 
3
total: 898 i: 377 x: 358.0273441614722 y: 69.27684723753035 E: -0.4432501816037175
Li -5.5134035976984705 -0.07117413246301696 0.0 
H 4.682966647958775 0.14234826492603392 0.0 
H 0.8304369497396937 -0.07117413246301696 0.0 
3
total: 898 i: 378 x: 359.7640620521162 y: 70.65496199933813 E: -0.6805144516158675
Li -5.596986938459016 -0.007561971101036746 0.0 
H 4.58596586173068 0.015123942202073491 0.0 
H 1.0110210767283343 -0.007561971101036746 0.0 
3
total: 898 i: 379 x: 359.1708653374856 y: 71.31274142711702 E: -0.8259083823160777
Li -5.6293798432693585 -0.025052305026657576 0.0 
H 4.532945396616858 0.05010461005331515 0.0 
H 1.0964344466524993 -0.025052305026657576 0.0 
3
total: 898 i: 380 x: 357.90888891271186 y: 72.32791082832318 E: -1.093950461288197
Li -5.672353738842741 -0.057525695410780335 0.0 
H 4.44596970170665 0.11505139082156066 0.0 
H 1.2263840371360901 -0.057525695410780335 0.0 
3
total: 898 i: 381 x: 356.46086096616204 y: 73.4946193971564 E: -1.4687490044880165
Li -5.713585919233569 -0.0870525272409924 0.0 
H 4.341268768603106 0.17410505448198482 0.0 
H 1.3723171506304626 -0.0870525272409924 0.0 
3
total: 898 i: 382 x: 355.0843941189553 y: 74.58817013200354 E: -1.8827979694548294
Li -5.746239706698888 -0.10841185447477238 0.0 
H 4.24076455633755 0.21682370894954478 0.0 
H 1.505475150361339 -0.10841185447477238 0.0 
3
total: 898 i: 383 x: 354.15523410110353 y: 75.30562495477969 E: -2.1842336623278675
Li -5.765192683908798 -0.1197060366683046 0.0 
H 4.174292205922844 0.2394120733366092 0.0 
H 1.590900477985957 -0.1197060366683046 0.0 
3
total: 898 i: 384 x: 353.9161672673388 y: 75.48656403985639 E: -2.2635182800298086
Li -5.769708904156933 -0.12225682694839123 0.0 
H 4.1575041816510625 0.24451365389678242 0.0 
H 1.6122047225058695 -0.12225682694839123 0.0 
3
total: 898 i: 385 x: 353.6911125533943 y: 75.65536092049722 E: -2.338545439714017
Li -5.773833976156099 -0.12453575753766898 0.0 
H 4.1418406475959175 0.24907151507533792 0.0 
H 1.6319933285601813 -0.12453575753766898 0.0 
3
total: 898 i: 386 x: 353.1416426445153 y: 76.0607745225454 E: -2.522525847867448
Li -5.783413732897466 -0.12963129108283394 0.0 
H 4.104227690860074 0.2592625821656679 0.0 
H 1.6791860420373936 -0.12963129108283394 0.0 
3
total: 898 i: 387 x: 352.0647546864537 y: 76.82493870405946 E: -2.8805131314273966
Li -5.8003343794093345 -0.13790524888325903 0.0 
H 4.0334501930178055 0.2758104977665181 0.0 
H 1.766884186391528 -0.13790524888325903 0.0 
3
total: 898 i: 388 x: 350.70984417516104 y: 77.72300986883116 E: -3.309330736491239
Li -5.818602700208778 -0.14568722590245167 0.0 
H 3.950647625067674 0.2913744518049034 0.0 
H 1.8679550751411043 -0.14568722590245167 0.0 
3
total: 898 i: 389 x: 349.20852273153423 y: 78.63004165689998 E: -3.7327489324037493
Li -5.835611783583594 -0.15175547619146088 0.0 
H 3.8675890257989183 0.3035109523829217 0.0 
H 1.9680227577846754 -0.15175547619146088 0.0 
3
total: 898 i: 390 x: 347.6234832305594 y: 79.48641635615422 E: -4.099606032243329
Li -5.85062100738903 -0.1561230887905247 0.0 
H 3.7897574468611595 0.31224617758104944 0.0 
H 2.06086356052787 -0.1561230887905247 0.0 
3
total: 898 i: 391 x: 345.649484724631 y: 80.4144437298727 E: -4.421429556581688
Li -5.866027326958356 -0.15967687850902362 0.0 
H 3.7060234056235313 0.31935375701804725 0.0 
H 2.160003921334825 -0.15967687850902362 0.0 
3
total: 898 i: 392 x: 343.7338853078338 y: 81.18125728192787 E: -4.582526823433331
Li -5.878316803759155 -0.16195375139300552 0.0 
H 3.6371878310040824 0.323907502786011 0.0 
H 2.2411289727550745 -0.16195375139300552 0.0 
3
total: 898 i: 393 x: 341.77007246111924 y: 81.84708974549221 E: -4.600103936945822
Li -5.888862212130181 -0.16369256661506768 0.0 
H 3.577482766629978 0.3273851332301353 0.0 
H 2.3113794455002017 -0.16369256661506768 0.0 
3
total: 898 i: 394 x: 339.68739158170126 y: 82.43854725482578 E: -4.4773733681747006
Li -5.898322221188973 -0.16531310968650295 0.0 
H 3.524235903637363 0.33062621937300596 0.0 
H 2.37408631755161 -0.16531310968650295 0.0 
3
total: 898 i: 395 x: 337.1992127354963 y: 83.01486838480834 E: -4.182390471197034
Li -5.9078826419614385 -0.16735095783268236 0.0 
H 3.471721985857095 0.33470191566536467 0.0 
H 2.4361606561043425 -0.16735095783268236 0.0 
3
total: 898 i: 396 x: 334.47696582341774 y: 83.51133730266609 E: -3.73726054360099
Li -5.9167496228818335 -0.1700578751088431 0.0 
H 3.425288874646527 0.34011575021768625 0.0 
H 2.491460748235304 -0.1700578751088431 0.0 
3
total: 898 i: 397 x: 331.5117825465736 y: 83.92233345584327 E: -3.1887417747514673
Li -5.92505599099929 -0.17387781112430603 0.0 
H 3.3849066492127626 0.3477556222486121 0.0 
H 2.5401493417865257 -0.17387781112430603 0.0 
3
total: 898 i: 398 x: 329.2539144421673 y: 84.15971639375408 E: -2.778022256959573
Li -5.9306989565401595 -0.17754896886618446 0.0 
H 3.3597831373736318 0.355097937732369 0.0 
H 2.570915819166527 -0.17754896886618446 0.0 
3
total: 898 i: 399 x: 327.18656378324414 y: 84.32759364358846 E: -2.4382128403822967
Li -5.935485443768371 -0.18158260943520002 0.0 
H 3.340242767036699 0.3631652188704001 0.0 
H 2.5952426767316705 -0.18158260943520002 0.0 
3
total: 898 i: 400 x: 325.00226368738146 y: 84.45884724185035 E: -2.140099363389814
Li -5.940247167131872 -0.18663273757582236 0.0 
H 3.322613045691204 0.37326547515164477 0.0 
H 2.6176341214406698 -0.18663273757582236 0.0 
3
total: 898 i: 401 x: 322.1257358017145 y: 84.565540629943 E: -1.8729775822432364
Li -5.946194593164738 -0.19469726876205792 0.0 
H 3.3033391979011517 0.3893945375241158 0.0 
H 2.642855395263587 -0.19469726876205792 0.0 
3
total: 898 i: 402 x: 319.98477428404453 y: 84.59878813737417 E: -1.7819161710409466
Li -5.950472050000652 -0.20190566800625645 0.0 
H 3.2914399262318668 0.40381133601251296 0.0 
H 2.6590321237687853 -0.20190566800625645 0.0 
3
total: 898 i: 403 x: 318.1192222198001 y: 84.59621221264355 E: -1.7831517612822398
Li -5.954149220019036 -0.20916213078184342 0.0 
H 3.2825267155591815 0.41832426156368685 0.0 
H 2.6716225044598536 -0.20916213078184342 0.0 
3
total: 898 i: 404 x: 316.2982513938779 y: 84.56492028604679 E: -1.8577909448402163
Li -5.957732605317285 -0.21725255432174229 0.0 
H 3.2749808738630586 0.43450510864348457 0.0 
H 2.6827517314542275 -0.21725255432174229 0.0 
3
total: 898 i: 405 x: 313.90506539284934 y: 84.47845424169275 E: -2.062968927574243
Li -5.9624950694310215 -0.2296604471924714 0.0 
H 3.266596438381672 0.45932089438494283 0.0 
H 2.6958986310493493 -0.2296604471924714 0.0 
3
total: 898 i: 406 x: 311.2625163046694 y: 84.3174321521616 E: -2.4175667503164933
Li -5.9679228618062625 -0.24621276930127323 0.0 
H 3.2590996326763486 0.49242553860254645 0.0 
H 2.708823229129913 -0.24621276930127323 0.0 
3
total: 898 i: 407 x: 309.41364819993305 y: 84.15830677657205 E: -2.731297506446147
Li -5.971896627913348 -0.2599942983090742 0.0 
H 3.2548007183412055 0.5199885966181483 0.0 
H 2.7170959095721434 -0.2599942983090742 0.0 
3
total: 898 i: 408 x: 307.72293160634547 y: 83.97409186763073 E: -3.051936808275148
Li -5.975712171391859 -0.2745450045282093 0.0 
H 3.2514483684423094 0.5490900090564186 0.0 
H 2.724263802949549 -0.2745450045282093 0.0 
3
total: 898 i: 409 x: 305.7332095317393 y: 83.70196966546915 E: -3.45069606607543
Li -5.980499389757206 -0.2945810520444109 0.0 
H 3.248077556401551 0.5891621040888217 0.0 
H 2.7324218333556534 -0.2945810520444109 0.0 
3
total: 898 i: 410 x: 303.4318158197556 y: 83.29653824380362 E: -3.9042489900626176
Li -5.986577583082059 -0.322721088026309 0.0 
H 3.244691115022051 0.6454421760526181 0.0 
H 2.741886468060007 -0.322721088026309 0.0 
3
total: 898 i: 411 x: 301.1982373971614 y: 82.78451727990519 E: -4.286455191872505
Li -5.993248071625082 -0.35675304386380063 0.0 
H 3.2414835554467647 0.7135060877276012 0.0 
H 2.7517645161783157 -0.35675304386380063 0.0 
3
total: 898 i: 412 x: 299.21622484601534 y: 82.20168686184951 E: -4.527716076381949
Li -6.000064501433376 -0.39444759216667147 0.0 
H 3.238083956514674 0.7888951843333429 0.0 
H 2.7619805449187043 -0.39444759216667147 0.0 
3
total: 898 i: 413 x: 297.47355904758615 y: 81.55740913998007 E: -4.6205825380496455
Li -6.007038676580805 -0.43545710768236856 0.0 
H 3.233889517161007 0.8709142153647371 0.0 
H 2.7731491594197983 -0.43545710768236856 0.0 
3
total: 898 i: 414 x: 295.90716004874736 y: 80.8403919773344 E: -4.5725946190874165
Li -6.014406293519909 -0.4807044182096994 0.0 
H 3.2281871217316054 0.9614088364193989 0.0 
H 2.7862191717883045 -0.4807044182096994 0.0 
3
total: 898 i: 415 x: 294.47568312519934 y: 80.03742814601658 E: -4.391337227942949
Li -6.022420618673908 -0.5311893819863115 0.0 
H 3.2201406930797996 1.0623787639726228 0.0 
H 2.8022799255941058 -0.5311893819863115 0.0 
3
total: 898 i: 416 x: 293.16141549546353 y: 79.14218769676106 E: -4.090233056461965
Li -6.031311555230302 -0.5874744362887451 0.0 
H 3.208802172171457 1.1749488725774904 0.0 
H 2.8225093830588444 -0.5874744362887451 0.0 
3
total: 898 i: 417 x: 291.97115036800284 y: 78.16998716598047 E: -3.6973586615405827
Li -6.0411812730341845 -0.6487659792450304 0.0 
H 3.1934016719118814 1.2975319584900609 0.0 
H 2.847779601122304 -0.6487659792450304 0.0 
3
total: 898 i: 418 x: 290.86557071220017 y: 77.10533163283964 E: -3.2317243122444568
Li -6.052579301929765 -0.7162126963756151 0.0 
H 3.1725844308876896 1.4324253927512305 0.0 
H 2.879994871042075 -0.7162126963756151 0.0 
3
total: 898 i: 419 x: 290.0031615926586 y: 76.15864922936433 E: -2.8119935558285225
Li -6.06355809441454 -0.7765353609020846 0.0 
H 3.15038607552371 1.5530707218041693 0.0 
H 2.9131720188908306 -0.7765353609020846 0.0 
3
total: 898 i: 420 x: 289.28808569348257 y: 75.30030062029692 E: -2.4409241842465423
Li -6.074501975370133 -0.8315387134934126 0.0 
H 3.1270836400000945 1.6630774269868254 0.0 
H 2.94741833537004 -0.8315387134934126 0.0 
3
total: 898 i: 421 x: 288.51377926399675 y: 74.31137766186633 E: -2.0361181177468346
Li -6.088712561431976 -0.8952812487620093 0.0 
H 3.0962742122675593 1.7905624975240184 0.0 
H 2.9924383491644146 -0.8952812487620093 0.0 
3
total: 898 i: 422 x: 287.6781170172874 y: 73.20886382848835 E: -1.6234696024571105
Li -6.107339129954238 -0.9667986556669587 0.0 
H 3.0565922291860828 1.933597311333917 0.0 
H 3.0507469007681562 -0.9667986556669587 0.0 
3
total: 898 i: 423 x: 286.76558347009745 y: 72.02318927097727 E: -1.2324299914384826
Li -6.132049276812985 -1.0441826807171692 0.0 
H 3.007110058878391 2.088365361434338 0.0 
H 3.124939217934596 -1.0441826807171692 0.0 
3
total: 898 i: 424 x: 285.73603656695303 y: 70.7909112855503 E: -0.8874013147530299
Li -6.165450155889213 -1.1249828327161941 0.0 
H 2.947364008985777 2.249965665432388 0.0 
H 3.2180861469034374 -1.1249828327161941 0.0 
3
total: 898 i: 425 x: 284.5545649319253 y: 69.59159079177512 E: -0.611461243312393
Li -6.210095480738261 -1.2037064615864452 0.0 
H 2.879775754855352 2.40741292317289 0.0 
H 3.330319725882907 -1.2037064615864452 0.0 
3
total: 898 i: 426 x: 283.16108873960644 y: 68.49934724533655 E: -0.4086225648799919
Li -6.269186632353215 -1.274967210320342 0.0 
H 2.808103292004663 2.5499344206406844 0.0 
H 3.4610833403485515 -1.274967210320342 0.0 
3
total: 898 i: 427 x: 282.22673933957856 y: 67.94504151605409 E: -0.3216771917334128
Li -6.311411202840379 -1.3106271549145996 0.0 
H 2.7667455969863433 2.621254309829199 0.0 
H 3.5446656058540356 -1.3106271549145996 0.0 
3
total: 898 i: 428 x: 281.6952581977034 y: 67.68547921125325 E: -0.284241909121488
Li -6.336044210231919 -1.3270837355010854 0.0 
H 2.745763630790816 2.6541674710021708 0.0 
H 3.590280579441104 -1.3270837355010854 0.0 
3
total: 898 i: 429 x: 281.6940568726539 y: 67.68493483510937 E: -0.2841654098966618
Li -6.336100280683841 -1.3271180177249449 0.0 
H 2.7457182837309553 2.6542360354498893 0.0 
H 3.5903819969528854 -1.3271180177249449 0.0 
3
total: 898 i: 430 x: 281.69296092498473 y: 67.68443837205828 E: -0.28409565079389754
Li -6.336151434161848 -1.3271492816450736 0.0 
H 2.745676922540601 2.654298563290147 0.0 
H 3.590474511621246 -1.3271492816450736 0.0 
3
total: 898 i: 431 x: 281.68748097185045 y: 67.68195827307383 E: -0.2837472675952399
Li -6.336407231484867 -1.3273054478712605 0.0 
H 2.7454702248798037 2.654610895742521 0.0 
H 3.5909370066050625 -1.3273054478712605 0.0 
3
total: 898 i: 432 x: 281.6634600516487 y: 67.67113238499564 E: -0.2822285032488039
Li -6.337528887024878 -1.3279868580881045 0.0 
H 2.744566470840989 2.6559737161762094 0.0 
H 3.592962416183892 -1.3279868580881045 0.0 
3
total: 898 i: 433 x: 281.58584751280625 y: 67.63665614729018 E: -0.27741294980203646
Li -6.341157243310847 -1.3301538621652782 0.0 
H 2.7416718375070834 2.660307724330556 0.0 
H 3.5994854058037644 -1.3301538621652782 0.0 
3
total: 898 i: 434 x: 281.39429483194175 y: 67.5547997788719 E: -0.2661051444624421
Li -6.350138428631318 -1.335279135323062 0.0 
H 2.7346932178910173 2.670558270646124 0.0 
H 3.6154452107402992 -1.335279135323062 0.0 
3
total: 898 i: 435 x: 281.0492947959975 y: 67.41859514682693 E: -0.2476594987051742
Li -6.36639685017444 -1.3437352878073838 0.0 
H 2.7227124203812307 2.6874705756147677 0.0 
H 3.6436844297932103 -1.3437352878073838 0.0 
3
total: 898 i: 436 x: 280.52847327135015 y: 67.23878653771577 E: -0.2239280182920235
Li -6.391098269692269 -1.3547177260316687 0.0 
H 2.7060290121926043 2.709435452063338 0.0 
H 3.6850692574996673 -1.3547177260316687 0.0 
3
total: 898 i: 437 x: 279.5885431323155 y: 66.98559358014268 E: -0.19126498256598617
Li -6.435953287966065 -1.3696083963459544 0.0 
H 2.680011582079848 2.7392167926919084 0.0 
H 3.755941705886217 -1.3696083963459544 0.0 
3
total: 898 i: 438 x: 278.16806878821717 y: 66.75297698822553 E: -0.16020657664359747
Li -6.503766647998934 -1.3817568479216578 0.0 
H 2.649904196851854 2.763513695843316 0.0 
H 3.8538624511470827 -1.3817568479216578 0.0 
3
total: 898 i: 439 x: 277.47625272697405 y: 66.69586961776176 E: -0.15102358694932155
Li -6.53656421979543 -1.383812713793417 0.0 
H 2.638891043557095 2.767625427586834 0.0 
H 3.897673176238335 -1.383812713793417 0.0 
3
total: 898 i: 440 x: 276.7846883587492 y: 66.67105965103299 E: -0.1449346844233475
Li -6.569083775039018 -1.3836650490552318 0.0 
H 2.63006149929162 2.767330098110464 0.0 
H 3.939022275747397 -1.3836650490552318 0.0 
3
total: 898 i: 441 x: 276.06111283529026 y: 66.67665634202558 E: -0.14144639350650753
Li -6.602748216118933 -1.381371855013015 0.0 
H 2.6229987399209733 2.7627437100260304 0.0 
H 3.9797494761979593 -1.381371855013015 0.0 
3
total: 898 i: 442 x: 275.2853261907111 y: 66.71546428220925 E: -0.14062670866425986
Li -6.638356672760012 -1.3767088847050302 0.0 
H 2.6177243638236467 2.753417769410061 0.0 
H 4.020632308936366 -1.3767088847050302 0.0 
3
total: 898 i: 443 x: 274.52060880465046 y: 66.78420886895908 E: -0.14252828183128702
Li -6.672898693686978 -1.3700853650350515 0.0 
H 2.61468484141273 2.740170730070103 0.0 
H 4.058213852274248 -1.3700853650350515 0.0 
3
total: 898 i: 444 x: 273.4779410467324 y: 66.92246382821159 E: -0.1491957279671832
Li -6.719000874353921 -1.3581353054763303 0.0 
H 2.6137154435631755 2.7162706109526606 0.0 
H 4.1052854307907465 -1.3581353054763303 0.0 
3
total: 898 i: 445 x: 271.8667194890886 y: 67.22659714530397 E: -0.16852730457786227
Li -6.78774415714624 -1.3338612775893688 0.0 
H 2.618672968702483 2.667722555178737 0.0 
H 4.16907118844376 -1.3338612775893688 0.0 
3
total: 898 i: 446 x: 269.73117674085574 y: 67.77710908735642 E: -0.21197955291696902
Li -6.873727265379827 -1.2925516998505158 0.0 
H 2.635633536791021 2.5851033997010315 0.0 
H 4.238093728588808 -1.2925516998505158 0.0 
3
total: 898 i: 447 x: 267.05492491947945 y: 68.66799952864524 E: -0.30065324003996546
Li -6.972618958205461 -1.2289936467338836 0.0 
H 2.6705828147496904 2.4579872934677676 0.0 
H 4.30203614345577 -1.2289936467338836 0.0 
3
total: 898 i: 448 x: 263.548587388024 y: 70.11206202741543 E: -0.4948525528403946
Li -7.086741122230332 -1.1307846817761078 0.0 
H 2.734058429967761 2.2615693635522156 0.0 
H 4.352682692262571 -1.1307846817761078 0.0 
3
total: 898 i: 449 x: 260.0810853781842 y: 71.77790156760418 E: -0.808796614345412
Li -7.182560468253406 -1.0222636422261056 0.0 
H 2.810667877577627 2.0445272844522115 0.0 
H 4.371892590675781 -1.0222636422261056 0.0 
3
total: 898 i: 450 x: 257.1627140747382 y: 73.30341271046696 E: -1.1930804744918801
Li -7.250735795247892 -0.9260199303452178 0.0 
H 2.8815176953517954 1.8520398606904354 0.0 
H 4.369218099896098 -0.9260199303452178 0.0 
3
total: 898 i: 451 x: 255.11859830955922 y: 74.40764595893472 E: -1.5332199273448248
Li -7.292161679159058 -0.8577447378369829 0.0 
H 2.932680309721423 1.7154894756739658 0.0 
H 4.359481369437637 -0.8577447378369829 0.0 
3
total: 898 i: 452 x: 253.66359155264365 y: 75.19847037853481 E: -1.8091239171947173
Li -7.318681681935872 -0.8094093700535713 0.0 
H 2.969156590535049 1.6188187401071423 0.0 
H 4.349525091400824 -0.8094093700535713 0.0 
3
total: 898 i: 453 x: 253.0915891204739 y: 75.50851973314784 E: -1.9244668877149806
Li -7.328464039432222 -0.7905665666800051 0.0 
H 2.98341154771152 1.58113313336001 0.0 
H 4.345052491720703 -0.7905665666800051 0.0 
3
total: 898 i: 454 x: 252.5514887442749 y: 75.80020518065754 E: -2.0365336215134255
Li -7.33737845930808 -0.772888761929437 0.0 
H 2.9967968970800962 1.5457775238588742 0.0 
H 4.340581562227981 -0.772888761929437 0.0 
3
total: 898 i: 455 x: 251.38150782414885 y: 76.42664599472184 E: -2.2882544151454214
Li -7.355648568024221 -0.7350654711876353 0.0 
H 3.0254578866312345 1.4701309423752709 0.0 
H 4.330190681392986 -0.7350654711876353 0.0 
3
total: 898 i: 456 x: 249.6190852822324 y: 77.34929341892591 E: -2.683017109608452
Li -7.380615532725568 -0.679646096807451 0.0 
H 3.0674496463419567 1.3592921936149023 0.0 
H 4.313165886383611 -0.679646096807451 0.0 
3
total: 898 i: 457 x: 247.65150039961924 y: 78.336514110408 E: -3.127580230653902
Li -7.405134624268766 -0.6206055978263327 0.0 
H 3.1120839370004463 1.2412111956526655 0.0 
H 4.293050687268322 -0.6206055978263327 0.0 
3
total: 898 i: 458 x: 245.09209382892914 y: 79.53099972986487 E: -3.670927072518624
Li -7.432298180683527 -0.5492994651066087 0.0 
H 3.16568393438802 1.0985989302132175 0.0 
H 4.266614246295508 -0.5492994651066087 0.0 
3
total: 898 i: 459 x: 242.7996020849817 y: 80.49856464590768 E: -4.083179502984827
Li -7.452676760764578 -0.4914240105747596 0.0 
H 3.208782370969918 0.9828480211495192 0.0 
H 4.243894389794659 -0.4914240105747596 0.0 
3
total: 898 i: 460 x: 240.30611980102822 y: 81.43142801624083 E: -4.411670680224952
Li -7.471263497618032 -0.43527820281399626 0.0 
H 3.250057123212536 0.8705564056279924 0.0 
H 4.221206374405495 -0.43527820281399626 0.0 
3
total: 898 i: 461 x: 237.69253071531986 y: 82.27426979698926 E: -4.59052873490685
Li -7.487438264297023 -0.38396519101039056 0.0 
H 3.2870690173751056 0.7679303820207812 0.0 
H 4.200369246921917 -0.38396519101039056 0.0 
3
total: 898 i: 462 x: 235.11348232456675 y: 82.97686170174656 E: -4.590235415976042
Li -7.50072865367532 -0.34042834750576806 0.0 
H 3.317623065061464 0.680856695011536 0.0 
H 4.183105588613855 -0.34042834750576806 0.0 
3
total: 898 i: 463 x: 232.38155583175072 y: 83.59383698240288 E: -4.413049392361989
Li -7.512530949687263 -0.3011970711848634 0.0 
H 3.344063564602558 0.6023941423697268 0.0 
H 4.168467385084706 -0.3011970711848634 0.0 
3
total: 898 i: 464 x: 229.1425600976223 y: 84.17733770112636 E: -4.016324508133597
Li -7.524211964420997 -0.26253002189342045 0.0 
H 3.368407017093202 0.5250600437868409 0.0 
H 4.155804947327794 -0.26253002189342045 0.0 
3
total: 898 i: 465 x: 225.58833646468952 y: 84.66220128420662 E: -3.4385063166353955
Li -7.534922855065939 -0.22808175097971473 0.0 
H 3.3875449470410137 0.45616350195942945 0.0 
H 4.147377908024924 -0.22808175097971473 0.0 
3
total: 898 i: 466 x: 222.32607657500824 y: 84.98851168617433 E: -2.8739189075995517
Li -7.543384877454334 -0.20225824844354198 0.0 
H 3.3990684166553686 0.4045164968870839 0.0 
H 4.144316460798966 -0.20225824844354198 0.0 
3
total: 898 i: 467 x: 219.45599165676992 y: 85.19623998443979 E: -2.420680958768374
Li -7.550074252755088 -0.18313521192386728 0.0 
H 3.404946473764012 0.36627042384773456 0.0 
H 4.145127778991075 -0.18313521192386728 0.0 
3
total: 898 i: 468 x: 218.20550894151435 y: 85.26600745198752 E: -2.249481547261531
Li -7.552826004930366 -0.17567089504383804 0.0 
H 3.406340070196392 0.3513417900876761 0.0 
H 4.146485934733973 -0.17567089504383804 0.0 
3
total: 898 i: 469 x: 216.96877672331348 y: 85.32345540075548 E: -2.1006708260764833
Li -7.555471884436083 -0.16873716662783209 0.0 
H 3.4070433832394587 0.3374743332556641 0.0 
H 4.148428501196622 -0.16873716662783209 0.0 
3
total: 898 i: 470 x: 214.46376635963404 y: 85.40634365705714 E: -1.872422158796538
Li -7.560654973154196 -0.1558868590239656 0.0 
H 3.4064407726644346 0.3117737180479312 0.0 
H 4.15421420048976 -0.1558868590239656 0.0 
3
total: 898 i: 471 x: 211.43295108853187 y: 85.44942220140811 E: -1.7455993857341274
Li -7.566730685816547 -0.14210726149375116 0.0 
H 3.4020708875671195 0.2842145229875024 0.0 
H 4.164659798249425 -0.14210726149375116 0.0 
3
total: 898 i: 472 x: 208.14385619762385 y: 85.42669212501308 E: -1.8073890707463074
Li -7.57326262679091 -0.12882735219205843 0.0 
H 3.392618753923043 0.25765470438411686 0.0 
H 4.180643872867864 -0.12882735219205843 0.0 
3
total: 898 i: 473 x: 205.95947465824142 y: 85.37056032533391 E: -1.9618324402240448
Li -7.5776637115945435 -0.12071871494373343 0.0 
H 3.383402288631065 0.24143742988746686 0.0 
H 4.194261422963478 -0.12071871494373343 0.0 
3
total: 898 i: 474 x: 203.7947737388346 y: 85.28050333873341 E: -2.1966693984085732
Li -7.5821481470688 -0.1130780125573772 0.0 
H 3.371698247847551 0.2261560251147544 0.0 
H 4.210449899221251 -0.1130780125573772 0.0 
3
total: 898 i: 475 x: 201.19484523527817 y: 85.12273327622334 E: -2.5692404114504908
Li -7.587794441804714 -0.10422597868977118 0.0 
H 3.3538247079726187 0.20845195737954236 0.0 
H 4.233969733832096 -0.10422597868977118 0.0 
3
total: 898 i: 476 x: 198.37615801228105 y: 84.88207066258654 E: -3.0507421288822276
Li -7.594392214080489 -0.09475373722093812 0.0 
H 3.328962384788344 0.18950747444187627 0.0 
H 4.265429829292145 -0.09475373722093812 0.0 
3
total: 898 i: 477 x: 195.42980003243397 y: 84.5384579566449 E: -3.5842634443369477
Li -7.602056216725319 -0.08460770998199175 0.0 
H 3.2956053055144396 0.16921541996398354 0.0 
H 4.306450911210876 -0.08460770998199175 0.0 
3
total: 898 i: 478 x: 192.44236136298323 y: 84.0718411812555 E: -4.08163203444577
Li -7.610969639597099 -0.07355390008391537 0.0 
H 3.252262024401353 0.1471078001678307 0.0 
H 4.358707615195745 -0.07355390008391537 0.0 
3
total: 898 i: 479 x: 189.5210709370133 y: 83.4709738539273 E: -4.443849301364569
Li -7.621258443955213 -0.06135017636788523 0.0 
H 3.198274495341076 0.12270035273577046 0.0 
H 4.422983948614135 -0.06135017636788523 0.0 
3
total: 898 i: 480 x: 186.81555893562378 y: 82.7544405841248 E: -4.600070251751998
Li -7.632721077728431 -0.048086449676281 0.0 
H 3.1355829750601307 0.09617289935256199 0.0 
H 4.497138102668303 -0.048086449676281 0.0 
3
total: 898 i: 481 x: 184.32379899165502 y: 81.92758971735277 E: -4.543624049603576
Li -7.645523608634842 -0.033445225719301 0.0 
H 3.064861057560699 0.066890451438602 0.0 
H 4.580662551074142 -0.033445225719301 0.0 
3
total: 898 i: 482 x: 181.92199332470898 y: 80.95130290937641 E: -4.286028361592179
Li -7.660596111101209 -0.016348160196712345 0.0 
H 2.98310805788003 0.0326963203934247 0.0 
H 4.67748805322118 -0.016348160196712345 0.0 
3
total: 898 i: 483 x: 179.55537977865703 y: 79.83916506268332 E: -3.86470933194177
Li -7.678196056276863 -0.004155467626359268 0.0 
H 2.8919154084103136 0.008310935252718536 0.0 
H 4.786280647866547 -0.004155467626359268 0.0 
3
total: 898 i: 484 x: 177.50164046231095 y: 78.66917422683619 E: -3.363172356879598
Li -7.6976566681709135 -0.02546149678796387 0.0 
H 2.7979438750196524 0.050922993575927736 0.0 
H 4.89971279315126 -0.02546149678796387 0.0 
3
total: 898 i: 485 x: 175.4487648863428 y: 77.3935067365487 E: -2.8085836467327443
Li -7.720500861715345 -0.050393215669333545 0.0 
H 2.6976016744862283 0.10078643133866708 0.0 
H 5.022899187229117 -0.050393215669333545 0.0 
3
total: 898 i: 486 x: 173.26345077287826 y: 75.93423708276755 E: -2.2111246796069377
Li -7.749526351226599 -0.08107596605776542 0.0 
H 2.585428956857415 0.1621519321155308 0.0 
H 5.164097394369184 -0.08107596605776542 0.0 
3
total: 898 i: 487 x: 171.13797685672387 y: 74.46941686789232 E: -1.67938336151304
Li -7.782975286361803 -0.11485945785713829 0.0 
H 2.475689524820459 0.22971891571427655 0.0 
H 5.307285761541343 -0.11485945785713829 0.0 
3
total: 898 i: 488 x: 169.12376031334298 y: 73.0993902400993 E: -1.2537619550070622
Li -7.819796826119085 -0.1500643885339148 0.0 
H 2.375910854977449 0.3001287770678296 0.0 
H 5.443885971141639 -0.1500643885339148 0.0 
3
total: 898 i: 489 x: 166.99186407719912 y: 71.73086872220914 E: -0.898297351078741
Li -7.864447109213458 -0.19010893050161204 0.0 
H 2.279618349594262 0.3802178610032241 0.0 
H 5.584828759619196 -0.19010893050161204 0.0 
3
total: 898 i: 490 x: 164.56955269031474 y: 70.34676056226299 E: -0.6053633921420685
Li -7.922400473371677 -0.2382030701853898 0.0 
H 2.1871078472360805 0.47640614037077966 0.0 
H 5.735292626135597 -0.2382030701853898 0.0 
3
total: 898 i: 491 x: 162.4222038452857 y: 69.3179380193362 E: -0.42636431343192016
Li -7.98017168379151 -0.28235876332178184 0.0 
H 2.1236900569374013 0.5647175266435636 0.0 
H 5.856481626854108 -0.28235876332178184 0.0 
3
total: 898 i: 492 x: 160.0462158165118 y: 68.43079267719642 E: -0.29370243726639544
Li -8.050917558313506 -0.332037848066247 0.0 
H 2.076684906506202 0.6640756961324938 0.0 
H 5.974232651807306 -0.332037848066247 0.0 
3
total: 898 i: 493 x: 157.66206884497774 y: 67.82794098884504 E: -0.20954626071789081
Li -8.128768735569484 -0.3818857470858373 0.0 
H 2.0561052234471084 0.7637714941716747 0.0 
H 6.072663512122375 -0.3818857470858373 0.0 
3
total: 898 i: 494 x: 155.2512292543075 y: 67.52675530009967 E: -0.15955015372928416
Li -8.21394595816476 -0.43129519490249857 0.0 
H 2.064309625310427 0.8625903898049971 0.0 
H 6.1496363328543335 -0.43129519490249857 0.0 
3
total: 898 i: 495 x: 152.95466400686237 y: 67.54067563444637 E: -0.13688282353744705
Li -8.300421788150103 -0.47632755807103416 0.0 
H 2.101108262323125 0.9526551161420682 0.0 
H 6.19931352582698 -0.47632755807103416 0.0 
3
total: 898 i: 496 x: 151.1086817771825 y: 67.77333612441338 E: -0.134380084729965
Li -8.373076298701745 -0.5101715246162358 0.0 
H 2.152545729971303 1.0203430492324714 0.0 
H 6.220530568730439 -0.5101715246162358 0.0 
3
total: 898 i: 497 x: 149.75117447255593 y: 68.0751212516617 E: -0.1419384353410174
Li -8.427896194764706 -0.5331692622684541 0.0 
H 2.20351847664873 1.0663385245369081 0.0 
H 6.224377718115978 -0.5331692622684541 0.0 
3
total: 898 i: 498 x: 148.37520124310106 y: 68.497825336259 E: -0.1591242745715416
Li -8.484299618014882 -0.5543524006711142 0.0 
H 2.2670910681719967 1.1087048013422285 0.0 
H 6.217208549842887 -0.5543524006711142 0.0 
3
total: 898 i: 499 x: 146.99553135649904 y: 69.04324999996108 E: -0.188406803933002
Li -8.541293469608005 -0.5729063770066468 0.0 
H 2.343333216487352 1.1458127540132939 0.0 
H 6.197960253120655 -0.5729063770066468 0.0 
3
total: 898 i: 500 x: 145.54483608044478 y: 69.75149917615099 E: -0.23659489153534527
Li -8.601151401952505 -0.5888235202423701 0.0 
H 2.4374130980680366 1.17764704048474 0.0 
H 6.163738303884468 -0.5888235202423701 0.0 
3
total: 898 i: 501 x: 144.16266370971067 y: 70.55670550423581 E: -0.305602831681762
Li -8.657493801356809 -0.5998138319441945 0.0 
H 2.5404995891820406 1.1996276638883892 0.0 
H 6.1169942121747685 -0.5998138319441945 0.0 
3
total: 898 i: 502 x: 142.42222487063884 y: 71.74935646724764 E: -0.4394343346986245
Li -8.726371321396734 -0.6066446476976018 0.0 
H 2.688566324512429 1.213289295395204 0.0 
H 6.037804996884304 -0.6066446476976018 0.0 
3
total: 898 i: 503 x: 141.17924235444562 y: 72.71524304099083 E: -0.580468396090405
Li -8.77331585975726 -0.6059935886561413 0.0 
H 2.805735970153517 1.2119871773122828 0.0 
H 5.967579889603742 -0.6059935886561413 0.0 
3
total: 898 i: 504 x: 139.94411054425007 y: 73.75496781600701 E: -0.7709995085360365
Li -8.817386030271782 -0.6003567208333788 0.0 
H 2.929856710446126 1.2007134416667573 0.0 
H 5.887529319825658 -0.6003567208333788 0.0 
3
total: 898 i: 505 x: 138.58402661632653 y: 74.96575594673592 E: -1.0515646265861798
Li -8.86218885954091 -0.5883311256287064 0.0 
H 3.072350661450953 1.1766622512574125 0.0 
H 5.7898381980899565 -0.5883311256287064 0.0 
3
total: 898 i: 506 x: 137.16337686676874 y: 76.26076968626165 E: -1.4311729061250504
Li -8.904076015909938 -0.5698193473148514 0.0 
H 3.2228322805444005 1.1396386946297028 0.0 
H 5.681243735365541 -0.5698193473148514 0.0 
3
total: 898 i: 507 x: 135.71821814941586 y: 77.5541405874945 E: -1.8999551967908714
Li -8.941055542093451 -0.5461354001390258 0.0 
H 3.371567411514162 1.092270800278052 0.0 
H 5.569488130579288 -0.5461354001390258 0.0 
3
total: 898 i: 508 x: 134.0782811816456 y: 78.92598234353412 E: -2.49520995848951
Li -8.976137278449647 -0.5158176526008738 0.0 
H 3.52804662202732 1.0316353052017475 0.0 
H 5.448090656422325 -0.5158176526008738 0.0 
3
total: 898 i: 509 x: 132.2512638929508 y: 80.27501375015915 E: -3.159621090437587
Li -9.00741631296962 -0.48110419571062973 0.0 
H 3.681084935565126 0.9622083914212596 0.0 
H 5.326331377404491 -0.48110419571062973 0.0 
3
total: 898 i: 510 x: 130.59097435217228 y: 81.31734925746248 E: -3.6932898274593065
Li -9.029921749109999 -0.4510868323324954 0.0 
H 3.7991317507402105 0.9021736646649907 0.0 
H 5.230789998369788 -0.4510868323324954 0.0 
3
total: 898 i: 511 x: 128.7258005144323 y: 82.29055684502136 E: -4.159907549134865
Li -9.049990846508747 -0.4206054107688361 0.0 
H 3.90959952723483 0.8412108215376721 0.0 
H 5.140391319273917 -0.4206054107688361 0.0 
3
total: 898 i: 512 x: 126.48632382457481 y: 83.22312513117502 E: -4.502403344984254
Li -9.068710113064125 -0.3892185290827141 0.0 
H 4.016269326656575 0.7784370581654281 0.0 
H 5.05244078640755 -0.3892185290827141 0.0 
3
total: 898 i: 513 x: 124.05065827805824 y: 84.00605654294503 E: -4.609761669900953
Li -9.084391003729614 -0.36129474072941514 0.0 
H 4.107275564999261 0.7225894814588303 0.0 
H 4.977115438730353 -0.36129474072941514 0.0 
3
total: 898 i: 514 x: 121.36176904049424 y: 84.66026447452704 E: -4.462465462745815
Li -9.097865193789032 -0.3369941692491107 0.0 
H 4.1855117002334765 0.6739883384982213 0.0 
H 4.912353493555555 -0.3369941692491107 0.0 
3
total: 898 i: 515 x: 117.83111356886775 y: 85.27944010578081 E: -3.983979073274552
Li -9.11157411974265 -0.31348665992851654 0.0 
H 4.263627614190925 0.6269733198570331 0.0 
H 4.847946505551727 -0.31348665992851654 0.0 
3
total: 898 i: 516 x: 114.28163915403134 y: 85.70880899572116 E: -3.346774316607485
Li -9.122454612534346 -0.2973764965207507 0.0 
H 4.323274246513213 0.5947529930415014 0.0 
H 4.79918036602113 -0.2973764965207507 0.0 
3
total: 898 i: 517 x: 110.84825283887945 y: 85.99255625165779 E: -2.7303109094414406
Li -9.131235145755534 -0.28745686872338705 0.0 
H 4.369085893062806 0.5749137374467741 0.0 
H 4.762149252692728 -0.28745686872338705 0.0 
3
total: 898 i: 518 x: 107.70338255781074 y: 86.16595772446668 E: -2.260841625926365
Li -9.138303843149274 -0.2824405103977837 0.0 
H 4.40411320865948 0.5648810207955672 0.0 
H 4.734190634489792 -0.2824405103977837 0.0 
3
total: 898 i: 519 x: 105.13257528123265 y: 86.25720747841636 E: -1.9868094654113737
Li -9.143623746603803 -0.28090740532467945 0.0 
H 4.429308502227691 0.5618148106493588 0.0 
H 4.714315244376115 -0.28090740532467945 0.0 
3
total: 898 i: 520 x: 103.75671943973745 y: 86.28943467319314 E: -1.888428417196127
Li -9.146352683261311 -0.2809824270350991 0.0 
H 4.441849243920307 0.5619648540701982 0.0 
H 4.704503439341002 -0.2809824270350991 0.0 
3
total: 898 i: 521 x: 102.40097744467911 y: 86.31056486640335 E: -1.8267274198290104
Li -9.14898306465296 -0.2816540675110197 0.0 
H 4.453702294960976 0.5633081350220395 0.0 
H 4.695280769691982 -0.2816540675110197 0.0 
3
total: 898 i: 522 x: 100.95198854102665 y: 86.32189176394182 E: -1.8004302373826144
Li -9.151746997560341 -0.28302568658340554 0.0 
H 4.465923627600251 0.5660513731668111 0.0 
H 4.68582336996009 -0.28302568658340554 0.0 
3
total: 898 i: 523 x: 99.54703613802745 y: 86.32202059659765 E: -1.8142151930496657
Li -9.154395956923736 -0.28500580642991463 0.0 
H 4.477430000621812 0.5700116128598294 0.0 
H 4.676965956301926 -0.28500580642991463 0.0 
3
total: 898 i: 524 x: 98.22130355577337 y: 86.31244506686694 E: -1.8621485814549081
Li -9.156881004811734 -0.28747234033116875 0.0 
H 4.488059216905809 0.5749446806623375 0.0 
H 4.668821787905925 -0.28747234033116875 0.0 
3
total: 898 i: 525 x: 96.6564027902273 y: 86.28900017163856 E: -1.960770482096165
Li -9.159812859130756 -0.2911539695220222 0.0 
H 4.5004206442185914 0.5823079390440444 0.0 
H 4.659392214912165 -0.2911539695220222 0.0 
3
total: 898 i: 526 x: 94.57668615935086 y: 86.23712368263806 E: -2.157234093647036
Li -9.16373862811571 -0.2974005342507423 0.0 
H 4.516726056355983 0.5948010685014846 0.0 
H 4.647012571759724 -0.2974005342507423 0.0 
3
total: 898 i: 527 x: 92.58838348640161 y: 86.16454247853113 E: -2.4061530891397807
Li -9.167562413905493 -0.30492017282338413 0.0 
H 4.532409823288727 0.6098403456467683 0.0 
H 4.635152590616766 -0.30492017282338413 0.0 
3
total: 898 i: 528 x: 90.02067786889101 y: 86.03521331647048 E: -2.7959247396235445
Li -9.172673011646943 -0.3171019589929114 0.0 
H 4.55319769599712 0.6342039179858228 0.0 
H 4.619475315649824 -0.3171019589929114 0.0 
3
total: 898 i: 529 x: 87.02899485040743 y: 85.82841069330337 E: -3.3052510023405532
Li -9.178999652733333 -0.335303408610671 0.0 
H 4.5788700142209695 0.670606817221342 0.0 
H 4.600129638512364 -0.335303408610671 0.0 
3
total: 898 i: 530 x: 83.88190716292965 y: 85.53559700509399 E: -3.8371970941958544
Li -9.186288110529329 -0.359970454373061 0.0 
H 4.608621732622696 0.7199409087461219 0.0 
H 4.577666377906633 -0.359970454373061 0.0 
3
total: 898 i: 531 x: 80.76508089334297 y: 85.15530066531807 E: -4.279223794249038
Li -9.194417203083567 -0.39117623445907385 0.0 
H 4.642224637942 0.7823524689181476 0.0 
H 4.552192565141567 -0.39117623445907385 0.0 
3
total: 898 i: 532 x: 77.8534928660029 y: 84.70311423695345 E: -4.544077386374042
Li -9.203145613811204 -0.42775015917201215 0.0 
H 4.678821343080271 0.8555003183440244 0.0 
H 4.524324270730931 -0.42775015917201215 0.0 
3
total: 898 i: 533 x: 75.21069956673665 y: 84.19745016026724 E: -4.610144655400114
Li -9.212350146115117 -0.46838477952983015 0.0 
H 4.717820496046556 0.9367695590596603 0.0 
H 4.494529650068561 -0.46838477952983015 0.0 
3
total: 898 i: 534 x: 72.73819638788375 y: 83.6310862005934 E: -4.493201933737036
Li -9.222422752885576 -0.5138424640033489 0.0 
H 4.760624662841533 1.027684928006698 0.0 
H 4.461798090044043 -0.5138424640033489 0.0 
3
total: 898 i: 535 x: 70.33959332222167 y: 82.98769007924142 E: -4.208703920677752
Li -9.233958297882157 -0.5656265422443439 0.0 
H 4.8092824390461235 1.1312530844886877 0.0 
H 4.424675858836034 -0.5656265422443439 0.0 
3
total: 898 i: 536 x: 68.04021798794346 y: 82.28088159040566 E: -3.7929648786898738
Li -9.247137278697705 -0.6228686894490307 0.0 
H 4.8637417472182864 1.2457373788980615 0.0 
H 4.383395531479417 -0.6228686894490307 0.0 
3
total: 898 i: 537 x: 65.8754173987043 y: 81.53734788839289 E: -3.3013699987393794
Li -9.26200453225762 -0.6836347545881702 0.0 
H 4.923064689225022 1.3672695091763405 0.0 
H 4.3389398430326 -0.6836347545881702 0.0 
3
total: 898 i: 538 x: 63.702425741400006 y: 80.7240200569847 E: -2.748324061719582
Li -9.280041637102913 -0.7508881995979485 0.0 
H 4.991433705142805 1.5017763991958968 0.0 
H 4.288607931960106 -0.7508881995979485 0.0 
3
total: 898 i: 539 x: 61.68448542677303 y: 79.9234770680693 E: -2.222491383868091
Li -9.300402490740954 -0.8179935393704251 0.0 
H 5.063619771998068 1.63598707874085 0.0 
H 4.2367827187428855 -0.8179935393704251 0.0 
3
total: 898 i: 540 x: 59.94596966825807 y: 79.21435403929546 E: -1.790608716629898
Li -9.321489508373917 -0.8782524275480958 0.0 
H 5.1330477323029555 1.7565048550961917 0.0 
H 4.188441776070965 -0.8782524275480958 0.0 
3
total: 898 i: 541 x: 58.525816831895824 y: 78.6334174798722 E: -1.467626352967661
Li -9.34170750272192 -0.9282100346925235 0.0 
H 5.195024795561116 1.856420069385047 0.0 
H 4.146682707160805 -0.9282100346925235 0.0 
3
total: 898 i: 542 x: 57.297964020415165 y: 78.13815709567079 E: -1.2166108764670698
Li -9.361755326305806 -0.9712139919266055 0.0 
H 5.252588435277966 1.9424279838532112 0.0 
H 4.109166891027838 -0.9712139919266055 0.0 
3
total: 898 i: 543 x: 55.708304709761414 y: 77.51849906684018 E: -0.9355201772146096
Li -9.391839839077521 -1.0255065240918122 0.0 
H 5.332781534537977 2.0510130481836244 0.0 
H 4.059058304539548 -1.0255065240918122 0.0 
3
total: 898 i: 544 x: 53.84394242351381 y: 76.84233816349811 E: -0.6709505243939491
Li -9.43406713054361 -1.0851803161965463 0.0 
H 5.435180793569447 2.170360632393092 0.0 
H 3.998886336974163 -1.0851803161965463 0.0 
3
total: 898 i: 545 x: 51.809063556672825 y: 76.19482112656999 E: -0.4573183499461471
Li -9.490171515550939 -1.1422020423298398 0.0 
H 5.557239672121769 2.2844040846596796 0.0 
H 3.9329318434291682 -1.1422020423298398 0.0 
3
total: 898 i: 546 x: 50.14137754999236 y: 75.75574510511485 E: -0.3323068880894777
Li -9.544978161441554 -1.17996441270024 0.0 
H 5.66488784915723 2.3599288254004804 0.0 
H 3.880090312284322 -1.17996441270024 0.0 
3
total: 898 i: 547 x: 48.449342138519185 y: 75.41206733551779 E: -0.24268590658538816
Li -9.609379652806082 -1.2075853608830154 0.0 
H 5.780187972579002 2.4151707217660308 0.0 
H 3.82919168022708 -1.2075853608830154 0.0 
3
total: 898 i: 548 x: 46.65249820587703 y: 75.17623494260494 E: -0.1800659703113245
Li -9.687731541531258 -1.2225746123022825 0.0 
H 5.9074755063104 2.445149224604565 0.0 
H 3.7802560352208623 -1.2225746123022825 0.0 
3
total: 898 i: 549 x: 45.461074336614104 y: 75.10121490876924 E: -0.15367271151108922
Li -9.745193975870297 -1.2231090969546512 0.0 
H 5.99314398205509 2.446218193909303 0.0 
H 3.7520499938152074 -1.2231090969546512 0.0 
3
total: 898 i: 550 x: 44.42852425701101 y: 75.09277197423174 E: -0.13935325752127087
Li -9.798289490550856 -1.216870555212008 0.0 
H 6.067073538923676 2.433741110424016 0.0 
H 3.7312159516271777 -1.216870555212008 0.0 
3
total: 898 i: 551 x: 43.439865126802815 y: 75.13653689181793 E: -0.13271403958467654
Li -9.851690634621919 -1.2046873906179125 0.0 
H 6.13658899549859 2.409374781235825 0.0 
H 3.7151016391233327 -1.2046873906179125 0.0 
3
total: 898 i: 552 x: 42.14468843977967 y: 75.27421979050041 E: -0.13465949357303755
Li -9.92478589872489 -1.179091278549878 0.0 
H 6.223958207870259 2.358182557099756 0.0 
H 3.7008276908546307 -1.179091278549878 0.0 
3
total: 898 i: 553 x: 40.74068097352652 y: 75.53073481049569 E: -0.1520174726007137
Li -10.006821662346969 -1.138644459775999 0.0 
H 6.310944437625537 2.2772889195519985 0.0 
H 3.695877224721432 -1.138644459775999 0.0 
3
total: 898 i: 554 x: 39.2436065572391 y: 75.93114576881986 E: -0.19268657141777892
Li -10.095521601190336 -1.0810287675460373 0.0 
H 6.390526580307485 2.1620575350920745 0.0 
H 3.7049950208828513 -1.0810287675460373 0.0 
3
total: 898 i: 555 x: 37.64121785936068 y: 76.50609689832538 E: -0.27223929045693396
Li -10.189009465255731 -1.0038166982486543 0.0 
H 6.4551820381584815 2.007633396497308 0.0 
H 3.73382742709725 -1.0038166982486543 0.0 
3
total: 898 i: 556 x: 35.87597588516262 y: 77.30776431581191 E: -0.42607797068014286
Li -10.286289712289806 -0.9031316023770412 0.0 
H 6.495617161700617 1.806263204754082 0.0 
H 3.790672550589191 -0.9031316023770412 0.0 
3
total: 898 i: 557 x: 34.834345557143486 y: 77.85470943730542 E: -0.5637547239574167
Li -10.339183984454886 -0.8381651179898624 0.0 
H 6.502539862564317 1.6763302359797247 0.0 
H 3.8366441218905702 -0.8381651179898624 0.0 
3
total: 898 i: 558 x: 33.58568898676195 y: 78.56759110434871 E: -0.7889131006302431
Li -10.396915644742643 -0.7574546082267104 0.0 
H 6.494128682686059 1.5149092164534208 0.0 
H 3.9027869620565827 -0.7574546082267104 0.0 
3
total: 898 i: 559 x: 31.965279121694426 y: 79.54990648832968 E: -1.1938126701635183
Li -10.461390414135183 -0.6528668763254507 0.0 
H 6.4588425765947175 1.3057337526509012 0.0 
H 4.002547837540465 -0.6528668763254507 0.0 
3
total: 898 i: 560 x: 31.26602185525724 y: 79.98011093789091 E: -1.4079229453254616
Li -10.485435582524454 -0.6092799648437931 0.0 
H 6.4367405997716975 1.2185599296875864 0.0 
H 4.0486949827527585 -0.6092799648437931 0.0 
3
total: 898 i: 561 x: 30.354721066250566 y: 80.5349836799358 E: -1.7176436152825636
Li -10.51345026934623 -0.5549109570867407 0.0 
H 6.403434980824365 1.1098219141734815 0.0 
H 4.110015288521863 -0.5549109570867407 0.0 
3
total: 898 i: 562 x: 28.995499508997604 y: 81.331102375198 E: -2.224987970813344
Li -10.548761800114457 -0.4803056701598976 0.0 
H 6.347756789246327 0.9606113403197953 0.0 
H 4.20100501086813 -0.4803056701598976 0.0 
3
total: 898 i: 563 x: 27.305182232551914 y: 82.2375189728178 E: -2.875898380642121
Li -10.583409297099251 -0.3998328272978641 0.0 
H 6.275218573377813 0.7996656545957281 0.0 
H 4.30819072372144 -0.3998328272978641 0.0 
3
total: 898 i: 564 x: 25.69903121872785 y: 82.99388848224976 E: -3.447230528410061
Li -10.608817870956333 -0.3359467558182771 0.0 
H 6.208714103264068 0.6718935116365541 0.0 
H 4.400103767692265 -0.3359467558182771 0.0 
3
total: 898 i: 565 x: 24.05736910997423 y: 83.65892233211942 E: -3.931917618522069
Li -10.629133697070904 -0.2819265019917558 0.0 
H 6.146558175966748 0.5638530039835117 0.0 
H 4.482575521104154 -0.2819265019917558 0.0 
3
total: 898 i: 566 x: 22.090725547832317 y: 84.32410231881128 E: -4.344728122690823
Li -10.64802842023885 -0.2295775769247533 0.0 
H 6.081471568411624 0.45915515384950656 0.0 
H 4.566556851827226 -0.2295775769247533 0.0 
3
total: 898 i: 567 x: 19.814481925054476 y: 84.94257861976654 E: -4.5810759526841265
Li -10.66474656804912 -0.1819798083185422 0.0 
H 6.018708957866837 0.3639596166370844 0.0 
H 4.646037610182281 -0.1819798083185422 0.0 
3
total: 898 i: 568 x: 17.46426240719438 y: 85.4446903010024 E: -4.576934935405094
Li -10.67809380272215 -0.14357235614344208 0.0 
H 5.966392241416807 0.2871447122868841 0.0 
H 4.71170156130534 -0.14357235614344208 0.0 
3
total: 898 i: 569 x: 14.856662133729623 y: 85.87641864360936 E: -4.341321201651935
Li -10.68980177741849 -0.11001506245418834 0.0 
H 5.920593888933906 0.22003012490837665 0.0 
H 4.769207888484589 -0.11001506245418834 0.0 
3
total: 898 i: 570 x: 11.519617597770388 y: 86.2848023160643 E: -3.8114757589833737
Li -10.701684846868318 -0.07652917604111688 0.0 
H 5.876759481782006 0.15305835208223373 0.0 
H 4.824925365086308 -0.07652917604111688 0.0 
3
total: 898 i: 571 x: 8.15054929982902 y: 86.57558376982695 E: -3.1660998153754245
Li -10.711430546553688 -0.04976862775506158 0.0 
H 5.845448471254047 0.09953725551012316 0.0 
H 4.865982075299643 -0.04976862775506158 0.0 
3
total: 898 i: 572 x: 5.057301393366685 y: 86.76127610168197 E: -2.5957073449222676
Li -10.719120619652813 -0.02915290157151509 0.0 
H 5.825625978621936 0.058305803143030174 0.0 
H 4.893494641030873 -0.02915290157151509 0.0 
3
total: 898 i: 573 x: 2.319722863493475 y: 86.8734512178528 E: -2.178797819954539
Li -10.725282681094123 -0.012892491514881392 0.0 
H 5.8139376690471085 0.02578498302976278 0.0 
H 4.911345012047013 -0.012892491514881392 0.0 
3
total: 898 i: 574 x: 0.49902945853467306 y: 86.92478566712133 E: -1.9682795958940629
Li -10.729182168252107 -0.0027259080377993977 0.0 
H 5.808817846050131 0.0054518160755987945 0.0 
H 4.920364322201976 -0.0027259080377993977 0.0 
3
total: 898 i: 575 x: 358.53463587977177 y: 86.9601567054732 E: -1.8164925571594162
Li -10.73318367136392 -0.00790649333970025 0.0 
H 5.805578518762713 0.015812986679400495 0.0 
H 4.927605152601208 -0.00790649333970025 0.0 
3
total: 898 i: 576 x: 356.6157994244207 y: 86.97686822331906 E: -1.744489610285228
Li -10.737065918264245 -0.018146612306881325 0.0 
H 5.804487794883515 0.03629322461376265 0.0 
H 4.932578123380731 -0.018146612306881325 0.0 
3
total: 898 i: 577 x: 353.9430957604551 y: 86.9706115233194 E: -1.7785964964267642
Li -10.742430688064042 -0.03251479677752578 0.0 
H 5.806398072328035 0.06502959355505156 0.0 
H 4.936032615736009 -0.03251479677752578 0.0 
3
total: 898 i: 578 x: 351.50505926858386 y: 86.93462463882496 E: -1.9436281110789941
Li -10.747384982028082 -0.046107227303246394 0.0 
H 5.811666084690431 0.09221445460649277 0.0 
H 4.9357188973376545 -0.046107227303246394 0.0 
3
total: 898 i: 579 x: 349.80372520656186 y: 86.89157108318318 E: -2.129071319628692
Li -10.750932636456342 -0.05608964810292099 0.0 
H 5.817430170249407 0.11217929620584197 0.0 
H 4.933502466206939 -0.05608964810292099 0.0 
3
total: 898 i: 580 x: 348.1787351011883 y: 86.83570586898094 E: -2.353871886378059
Li -10.75443013315491 -0.06616842389274234 0.0 
H 5.824646900583405 0.13233684778548466 0.0 
H 4.929783232571504 -0.06616842389274234 0.0 
3
total: 898 i: 581 x: 346.0955562823434 y: 86.74109257826034 E: -2.6980688437446827
Li -10.75913012755359 -0.08012072299857939 0.0 
H 5.836555818332059 0.16024144599715878 0.0 
H 4.922574309221535 -0.08012072299857939 0.0 
3
total: 898 i: 582 x: 343.5413994614031 y: 86.58507483423483 E: -3.1772427781715122
Li -10.765352388517014 -0.09935408572610255 0.0 
H 5.855746665839556 0.1987081714522051 0.0 
H 4.909605722677455 -0.09935408572610255 0.0 
3
total: 898 i: 583 x: 340.8165131008576 y: 86.36054857300279 E: -3.7051229738059304
Li -10.772781528314944 -0.12345343588332779 0.0 
H 5.88280431495069 0.24690687176665554 0.0 
H 4.8899772133642525 -0.12345343588332779 0.0 
3
total: 898 i: 584 x: 338.11988108339506 y: 86.06447425821754 E: -4.173252134613522
Li -10.781289116770102 -0.15244234781158544 0.0 
H 5.917821243179047 0.3048846956231709 0.0 
H 4.8634678735910555 -0.15244234781158544 0.0 
3
total: 898 i: 585 x: 335.6118040752261 y: 85.70433171915217 E: -4.487116215278269
Li -10.790687417977937 -0.18589338393140994 0.0 
H 5.959655782356341 0.37178676786281983 0.0 
H 4.831031635621597 -0.18589338393140994 0.0 
3
total: 898 i: 586 x: 333.3882273952424 y: 85.29690211782297 E: -4.606585717434693
Li -10.800729659456245 -0.22284693566091265 0.0 
H 6.006152693505914 0.44569387132182536 0.0 
H 4.794576965950332 -0.22284693566091265 0.0 
3
total: 898 i: 587 x: 331.3955962194653 y: 84.84237534032097 E: -4.541752604531411
Li -10.811651115627647 -0.26389858752353473 0.0 
H 6.05709917408938 0.5277971750470694 0.0 
H 4.754551941538269 -0.26389858752353473 0.0 
3
total: 898 i: 588 x: 329.5441034813692 y: 84.32633013710753 E: -4.307792193975506
Li -10.824059585037139 -0.3109469768539889 0.0 
H 6.113830257198687 0.621893953707978 0.0 
H 4.710229327838448 -0.3109469768539889 0.0 
3
total: 898 i: 589 x: 327.81530821292785 y: 83.74703803913717 E: -3.929225875507831
Li -10.838345813358766 -0.36483513603286655 0.0 
H 6.176136610208671 0.7296702720657331 0.0 
H 4.6622092031501 -0.36483513603286655 0.0 
3
total: 898 i: 590 x: 326.25931911469024 y: 83.13405663761685 E: -3.4638147343064167
Li -10.854220715427337 -0.4235022062474516 0.0 
H 6.240455265640746 0.8470044124949032 0.0 
H 4.613765449786591 -0.4235022062474516 0.0 
3
total: 898 i: 591 x: 324.7943610050654 y: 82.47314677617922 E: -2.938890042042664
Li -10.872627778695088 -0.48903327876186387 0.0 
H 6.307849704528836 0.9780665575237277 0.0 
H 4.564778074166252 -0.48903327876186387 0.0 
3
total: 898 i: 592 x: 323.3080846602418 y: 81.72484336663155 E: -2.3600940867533096
Li -10.895739047359982 -0.566554445708216 0.0 
H 6.381482999806689 1.1331088914164318 0.0 
H 4.514256047553291 -0.566554445708216 0.0 
3
total: 898 i: 593 x: 321.91131721955094 y: 80.9679185304769 E: -1.8241233810091173
Li -10.922542217551353 -0.6491428838232534 0.0 
H 6.452692468127548 1.2982857676465067 0.0 
H 4.469849749423808 -0.6491428838232534 0.0 
3
total: 898 i: 594 x: 320.8942851900362 y: 80.40142911011333 E: -1.467160287248709
Li -10.945699179304079 -0.7141367391895144 0.0 
H 6.503497042468172 1.4282734783790287 0.0 
H 4.442202136835906 -0.7141367391895144 0.0 
3
total: 898 i: 595 x: 320.0069145139217 y: 79.91010695193087 E: -1.1914201481587265
Li -10.96866576670564 -0.7730573252199017 0.0 
H 6.5455539754880085 1.5461146504398031 0.0 
H 4.423111791217634 -0.7730573252199017 0.0 
3
total: 898 i: 596 x: 318.97242420927546 y: 79.35629664086778 E: -0.9192331571217784
Li -10.99884722102774 -0.8427793782807487 0.0 
H 6.590337740586326 1.6855587565614973 0.0 
H 4.408509480441417 -0.8427793782807487 0.0 
3
total: 898 i: 597 x: 317.7968541917105 y: 78.77159763513401 E: -0.6756300234116216
Li -11.037624478635555 -0.9209894569450493 0.0 
H 6.633949340924788 1.8419789138900984 0.0 
H 4.403675137710765 -0.9209894569450493 0.0 
3
total: 898 i: 598 x: 316.48768981897996 y: 78.1982142359016 E: -0.4781897094261197
Li -11.086155631404354 -1.0036422109520575 0.0 
H 6.6719571731219585 2.0072844219041146 0.0 
H 4.414198458282398 -1.0036422109520575 0.0 
3
total: 898 i: 599 x: 315.0854887269258 y: 77.69162802580355 E: -0.33494302493821276
Li -11.14368074510252 -1.0837327606687228 0.0 
H 6.699944819125049 2.167465521337445 0.0 
H 4.443735925977473 -1.0837327606687228 0.0 
3
total: 898 i: 600 x: 313.51139661915886 y: 77.26285632493976 E: -0.23364604825760468
Li -11.21376591132873 -1.1603978219157947 0.0 
H 6.716798840156704 2.3207956438315893 0.0 
H 4.496967071172028 -1.1603978219157947 0.0 
3
total: 898 i: 601 x: 312.02690242909404 y: 76.99087619170966 E: -0.17680123875373024
Li -11.283678244892227 -1.2184248289690733 0.0 
H 6.720571991001437 2.436849657938147 0.0 
H 4.563106253890789 -1.2184248289690733 0.0 
3
total: 898 i: 602 x: 311.02456538639234 y: 76.87561283564732 E: -0.15325320340189527
Li -11.332203423081198 -1.2495454245077942 0.0 
H 6.717575038022707 2.4990908490155883 0.0 
H 4.614628385058495 -1.2495454245077942 0.0 
3
total: 898 i: 603 x: 310.16539885720647 y: 76.81784918344147 E: -0.140403740918398
Li -11.374249983619805 -1.2710932967640964 0.0 
H 6.71201198624178 2.542186593528193 0.0 
H 4.662237997378028 -1.2710932967640964 0.0 
3
total: 898 i: 604 x: 309.3076978615233 y: 76.79573353961487 E: -0.13327487848253525
Li -11.416364569398342 -1.287985759419157 0.0 
H 6.704086395142122 2.5759715188383137 0.0 
H 4.712278174256221 -1.287985759419157 0.0 
3
total: 898 i: 605 x: 308.1277742103843 y: 76.81949605759984 E: -0.1316387689784627
Li -11.474084306768171 -1.303938105431631 0.0 
H 6.6899088439192465 2.607876210863262 0.0 
H 4.78417546284893 -1.303938105431631 0.0 
3
total: 898 i: 606 x: 307.0661826295937 y: 76.89056309483351 E: -0.13764593833532296
Li -11.525374344372258 -1.311405024029778 0.0 
H 6.674468886688937 2.6228100480595558 0.0 
H 4.850905457683323 -1.311405024029778 0.0 
3
total: 898 i: 607 x: 306.37788341948885 y: 76.95998955532383 E: -0.1452591291310882
Li -11.558121461339022 -1.312934786679096 0.0 
H 6.663332499385321 2.625869573358192 0.0 
H 4.894788961953699 -1.312934786679096 0.0 
3
total: 898 i: 608 x: 305.6952127655804 y: 77.0458869409453 E: -0.15577503233455411
Li -11.590101503876388 -1.311998279273037 0.0 
H 6.651544085466073 2.6239965585460743 0.0 
H 4.938557418410317 -1.311998279273037 0.0 
3
total: 898 i: 609 x: 305.18485997685724 y: 77.12065378377622 E: -0.16564779557492887
Li -11.61363705673981 -1.3097640632118084 0.0 
H 6.642307168494709 2.619528126423617 0.0 
H 4.971329888245103 -1.3097640632118084 0.0 
3
total: 898 i: 610 x: 304.6980096422406 y: 77.20002347053288 E: -0.17675237711302025
Li -11.635761335497145 -1.3064546437034201 0.0 
H 6.633196129741519 2.6129092874068407 0.0 
H 5.002565205755632 -1.3064546437034201 0.0 
3
total: 898 i: 611 x: 303.9980293936839 y: 77.32729065739878 E: -0.19578767497513608
Li -11.66696292461026 -1.2997597494327622 0.0 
H 6.619645300437696 2.599519498865525 0.0 
H 5.0473176241725675 -1.2997597494327622 0.0 
3
total: 898 i: 612 x: 302.76485048530895 y: 77.58679646388502 E: -0.23907959518353453
Li -11.720016713772738 -1.2827363835806342 0.0 
H 6.594703412101646 2.5654727671612685 0.0 
H 5.125313301671094 -1.2827363835806342 0.0 
3
total: 898 i: 613 x: 300.9215605874576 y: 78.0498549995605 E: -0.33153007534562773
Li -11.794263254718976 -1.2460946311287369 0.0 
H 6.555605630904553 2.492189262257474 0.0 
H 5.2386576238144205 -1.2460946311287369 0.0 
3
total: 898 i: 614 x: 298.41976605728604 y: 78.79778920426625 E: -0.5264693917763091
Li -11.884434797098683 -1.1785125653053072 0.0 
H 6.500762267761894 2.357025130610614 0.0 
H 5.38367252933679 -1.1785125653053072 0.0 
3
total: 898 i: 615 x: 296.5663255578173 y: 79.41957410453708 E: -0.7374244909969309
Li -11.943057733529988 -1.1182814740808371 0.0 
H 6.459971427738841 2.236562948161674 0.0 
H 5.483086305791145 -1.1182814740808371 0.0 
3
total: 898 i: 616 x: 295.0694454418747 y: 79.95063505078608 E: -0.9567218321857087
Li -11.985366068671652 -1.0652018395586624 0.0 
H 6.427505440119109 2.1304036791173244 0.0 
H 5.557860628552547 -1.0652018395586624 0.0 
3
total: 898 i: 617 x: 293.50701630355445 y: 80.52135419243271 E: -1.2352299285501425
Li -12.024901879541124 -1.007090975847922 0.0 
H 6.394473982973237 2.0141819516958446 0.0 
H 5.630427896567882 -1.007090975847922 0.0 
3
total: 898 i: 618 x: 291.55210284970735 y: 81.24248940937835 E: -1.6524557887185722
Li -12.068112101992059 -0.9326508555438681 0.0 
H 6.354886457440815 1.8653017110877363 0.0 
H 5.713225644551246 -0.9326508555438681 0.0 
3
total: 898 i: 619 x: 289.09254515287716 y: 82.13146417919094 E: -2.263459993824729
Li -12.11352852675176 -0.8399436870843111 0.0 
H 6.308607203592265 1.6798873741686222 0.0 
H 5.804921323159496 -0.8399436870843111 0.0 
3
total: 898 i: 620 x: 286.93171957377916 y: 82.8700219346088 E: -2.8372513401165307
Li -12.14625106734006 -0.7624431026956925 0.0 
H 6.271748235967028 1.5248862053913848 0.0 
H 5.874502831373029 -0.7624431026956925 0.0 
3
total: 898 i: 621 x: 284.8782214449025 y: 83.51820355197641 E: -3.3658368887333427
Li -12.172073675753714 -0.6941711137195049 0.0 
H 6.240265160699325 1.38834222743901 0.0 
H 5.93180851505439 -0.6941711137195049 0.0 
3
total: 898 i: 622 x: 283.23109850861965 y: 83.99377954667555 E: -3.7482815873822877
Li -12.18963496196595 -0.6439337561659733 0.0 
H 6.217523080447933 1.2878675123319465 0.0 
H 5.972111881518014 -0.6439337561659733 0.0 
3
total: 898 i: 623 x: 282.65703116988897 y: 84.14972827849029 E: -3.8690297124220536
Li -12.195177068552189 -0.6274297629730848 0.0 
H 6.2101090083840145 1.25485952594617 0.0 
H 5.985068060168173 -0.6274297629730848 0.0 
3
total: 898 i: 624 x: 282.10277023959463 y: 84.29542102337736 E: -3.97843462422116
Li -12.20026831923449 -0.6119956638265103 0.0 
H 6.203194724175562 1.2239913276530205 0.0 
H 5.997073595058934 -0.6119956638265103 0.0 
3
total: 898 i: 625 x: 280.9476520838375 y: 84.58366431022668 E: -4.181537332932959
Li -12.210117753398322 -0.5814100937235932 0.0 
H 6.189531332218092 1.1628201874471866 0.0 
H 6.020586421180234 -0.5814100937235932 0.0 
3
total: 898 i: 626 x: 279.6107894173849 y: 84.89160062795449 E: -4.370414510779973
Li -12.220356467480228 -0.5486458357529768 0.0 
H 6.1749155035423 1.0972916715059537 0.0 
H 6.045440963937926 -0.5486458357529768 0.0 
3
total: 898 i: 627 x: 277.4235091000145 y: 85.33833944983924 E: -4.562988558417927
Li -12.234819360013963 -0.500891093364834 0.0 
H 6.153521932362407 1.0017821867296681 0.0 
H 6.081297427651551 -0.500891093364834 0.0 
3
total: 898 i: 628 x: 274.34196210914956 y: 85.85763979951176 E: -4.586060207673142
Li -12.25136622808831 -0.44486570745997045 0.0 
H 6.127881477555258 0.8897314149199409 0.0 
H 6.123484750533054 -0.44486570745997045 0.0 
3
total: 898 i: 629 x: 271.5150870630126 y: 86.23588053825033 E: -4.3818480057646925
Li -12.263601468363404 -0.4034555627921874 0.0 
H 6.107977968754216 0.8069111255843748 0.0 
H 6.155623499609188 -0.4034555627921874 0.0 
3
total: 898 i: 630 x: 268.0045755509808 y: 86.59806452031214 E: -3.9107379976445498
Li -12.276013302392116 -0.3628837781127743 0.0 
H 6.086664912942492 0.7257675562255486 0.0 
H 6.18934838944962 -0.3628837781127743 0.0 
3
total: 898 i: 631 x: 264.16969931928213 y: 86.88443982126769 E: -3.254492246582471
Li -12.287139542508129 -0.3294470395986248 0.0 
H 6.066071920710012 0.6588940791972497 0.0 
H 6.221067621798117 -0.3294470395986248 0.0 
3
total: 898 i: 632 x: 259.72278580459215 y: 87.10416885766884 E: -2.5098351118844837
Li -12.297990237124134 -0.301587160356581 0.0 
H 6.043712689180067 0.6031743207131619 0.0 
H 6.254277547944072 -0.301587160356581 0.0 
3
total: 898 i: 633 x: 255.6325484906784 y: 87.22001320818073 E: -2.0062508009169684
Li -12.306793958259902 -0.28398430547997244 0.0 
H 6.02293032678692 0.5679686109599449 0.0 
H 6.2838636314729825 -0.28398430547997244 0.0 
3
total: 898 i: 634 x: 251.68220065028055 y: 87.26395529825705 E: -1.7855401425149078
Li -12.31473903806092 -0.27288633196016293 0.0 
H 6.001249933509877 0.5457726639203258 0.0 
H 6.31348910455104 -0.27288633196016293 0.0 
3
total: 898 i: 635 x: 247.6681302440205 y: 87.24343506600776 E: -1.8721560191112931
Li -12.32265771106494 -0.2667774473084342 0.0 
H 5.976119098171404 0.5335548946168684 0.0 
H 6.346538612893534 -0.2667774473084342 0.0 
3
total: 898 i: 636 x: 243.95691691300337 y: 87.16302083703172 E: -2.223993752290526
Li -12.33018015730361 -0.2655006958236427 0.0 
H 5.948513544230741 0.5310013916472855 0.0 
H 6.381666613072872 -0.2655006958236427 0.0 
3
total: 898 i: 637 x: 240.5395974219366 y: 87.02916937031122 E: -2.7359311192627147
Li -12.337589322740493 -0.2681213596707932 0.0 
H 5.917645974426657 0.5362427193415864 0.0 
H 6.419943348313835 -0.2681213596707932 0.0 
3
total: 898 i: 638 x: 238.69562891167732 y: 86.9288902142658 E: -3.061792438644797
Li -12.341903420754823 -0.27115755463236707 0.0 
H 5.898069054173645 0.5423151092647343 0.0 
H 6.44383436658118 -0.27115755463236707 0.0 
3
total: 898 i: 639 x: 236.9605561568334 y: 86.81349530881485 E: -3.38254675109932
Li -12.3462442204593 -0.27514532000741054 0.0 
H 5.877286593129407 0.5502906400148211 0.0 
H 6.468957627329894 -0.27514532000741054 0.0 
3
total: 898 i: 640 x: 234.499315356264 y: 86.60876703410472 E: -3.82967591915062
Li -12.353017811488575 -0.2828692733312684 0.0 
H 5.8429639542433325 0.5657385466625366 0.0 
H 6.510053857245245 -0.2828692733312684 0.0 
3
total: 898 i: 641 x: 232.41166390016863 y: 86.38984720625672 E: -4.167565379915166
Li -12.359513185897677 -0.29154870692173485 0.0 
H 5.8082943192991845 0.5830974138434697 0.0 
H 6.551218866598495 -0.29154870692173485 0.0 
3
total: 898 i: 642 x: 231.15940013733623 y: 86.23470738258388 E: -4.336962502548966
Li -12.363836253036675 -0.297803956273071 0.0 
H 5.784492092961271 0.595607912546142 0.0 
H 6.579344160075406 -0.297803956273071 0.0 
3
total: 898 i: 643 x: 229.97533473720273 y: 86.06899784860066 E: -4.4656441674228775
Li -12.368285149751523 -0.30451148853081084 0.0 
H 5.759545775906586 0.6090229770616218 0.0 
H 6.6087393738449425 -0.30451148853081084 0.0 
3
total: 898 i: 644 x: 228.44935807328073 y: 85.82429153479782 E: -4.575345360924737
Li -12.37464248242786 -0.31438743700116517 0.0 
H 5.723351490449776 0.6287748740023305 0.0 
H 6.65129099197808 -0.31438743700116517 0.0 
3
total: 898 i: 645 x: 226.9317839411613 y: 85.5407747567208 E: -4.6087652428681745
Li -12.381818797778635 -0.3256993840713636 0.0 
H 5.682088446527413 0.6513987681427273 0.0 
H 6.6997303512512225 -0.3256993840713636 0.0 
3
total: 898 i: 646 x: 225.41474938082536 y: 85.21072368577373 E: -4.55404048975116
Li -12.390057943863203 -0.33860580786544897 0.0 
H 5.634670499976442 0.6772116157308978 0.0 
H 6.755387443886759 -0.33860580786544897 0.0 
3
total: 898 i: 647 x: 223.92540460933907 y: 84.83424609539583 E: -4.405610731244436
Li -12.399448144168758 -0.35290828326525925 0.0 
H 5.581137510906267 0.7058165665305185 0.0 
H 6.818310633262492 -0.35290828326525925 0.0 
3
total: 898 i: 648 x: 222.53311665770173 y: 84.42882122825674 E: -4.179018223192341
Li -12.409686424945521 -0.36775197772091056 0.0 
H 5.5239501224854575 0.735503955441821 0.0 
H 6.8857363024600655 -0.36775197772091056 0.0 
3
total: 898 i: 649 x: 221.2626617556856 y: 84.00885801256992 E: -3.9006153665747987
Li -12.420551330188031 -0.38247484492433714 0.0 
H 5.465079112947139 0.7649496898486743 0.0 
H 6.9554722172408905 -0.38247484492433714 0.0 
3
total: 898 i: 650 x: 220.1156054585305 y: 83.58573092403749 E: -3.5961012136053783
Li -12.431873553225614 -0.3966048717800583 0.0 
H 5.406055284853863 0.7932097435601166 0.0 
H 7.025818268371754 -0.3966048717800583 0.0 
3
total: 898 i: 651 x: 219.26730521771864 y: 83.2451531817161 E: -3.343331162579827
Li -12.441329638199973 -0.4074464303363959 0.0 
H 5.358721697512488 0.8148928606727919 0.0 
H 7.082607940687483 -0.4074464303363959 0.0 
3
total: 898 i: 652 x: 218.47923688892635 y: 82.90780920002722 E: -3.091990388531294
Li -12.45105316572735 -0.4177021418062367 0.0 
H 5.311972640369666 0.8354042836124733 0.0 
H 7.139080525357686 -0.4177021418062367 0.0 
3
total: 898 i: 653 x: 217.5299775837213 y: 82.47581279644967 E: -2.77500453934199
Li -12.464109070494311 -0.43010898683649784 0.0 
H 5.2522866364854846 0.8602179736729958 0.0 
H 7.211822434008829 -0.43010898683649784 0.0 
3
total: 898 i: 654 x: 216.34076221196003 y: 81.899188805587 E: -2.3701928553210454
Li -12.482788484437899 -0.4453376418919143 0.0 
H 5.1729173612479205 0.8906752837838285 0.0 
H 7.309871123189984 -0.4453376418919143 0.0 
3
total: 898 i: 655 x: 215.0186593000028 y: 81.22229808702666 E: -1.9333689177085807
Li -12.506951848677614 -0.4611342730377596 0.0 
H 5.080185339536817 0.9222685460755191 0.0 
H 7.426766509140796 -0.4611342730377596 0.0 
3
total: 898 i: 656 x: 213.55085274233755 y: 80.44752010516987 E: -1.493714614239962
Li -12.53838210988861 -0.47616422133686814 0.0 
H 4.974680155031111 0.9523284426737362 0.0 
H 7.5637019548575015 -0.47616422133686814 0.0 
3
total: 898 i: 657 x: 212.03800605986234 y: 79.65360935736443 E: -1.1130229118963801
Li -12.576123350333637 -0.4876571686894467 0.0 
H 4.867422162926401 0.9753143373788935 0.0 
H 7.708701187407231 -0.4876571686894467 0.0 
3
total: 898 i: 658 x: 210.6984333997644 y: 78.98108927372714 E: -0.8441453925754745
Li -12.614073446935128 -0.4936425187829781 0.0 
H 4.777447429705335 0.9872850375659563 0.0 
H 7.836626017229788 -0.4936425187829781 0.0 
3
total: 898 i: 659 x: 209.4989206487339 y: 78.42056311256844 E: -0.6551117518321913
Li -12.651499327054717 -0.4953233011573814 0.0 
H 4.703305526441545 0.9906466023147626 0.0 
H 7.948193800613174 -0.4953233011573814 0.0 
3
total: 898 i: 660 x: 208.16835794329768 y: 77.85874558105715 E: -0.4948821803584346
Li -12.69650282398319 -0.4930403714543396 0.0 
H 4.630104492172213 0.9860807429086791 0.0 
H 8.066398331810978 -0.4930403714543396 0.0 
3
total: 898 i: 661 x: 207.51682602635074 y: 77.60970667995944 E: -0.4324276326642205
Li -12.719751733036953 -0.49036622293232585 0.0 
H 4.598155437787996 0.9807324458646518 0.0 
H 8.121596295248958 -0.49036622293232585 0.0 
3
total: 898 i: 662 x: 206.93351811337982 y: 77.40221259696861 E: -0.38410348838750247
Li -12.741179303951968 -0.4871363091910459 0.0 
H 4.571853142257806 0.9742726183820918 0.0 
H 8.169326161694164 -0.4871363091910459 0.0 
3
total: 898 i: 663 x: 205.8988802370079 y: 77.0712911971109 E: -0.31351008742026626
Li -12.780474665133005 -0.47955296089644145 0.0 
H 4.530709595266602 0.9591059217928828 0.0 
H 8.249765069866404 -0.47955296089644145 0.0 
3
total: 898 i: 664 x: 204.7064346756404 y: 76.75000604479072 E: -0.25182284595500304
Li -12.82753329267201 -0.4680682622386805 0.0 
H 4.4921990030181025 0.936136524477361 0.0 
H 8.335334289653913 -0.4680682622386805 0.0 
3
total: 898 i: 665 x: 203.10978327391447 y: 76.42111062501074 E: -0.19433681002437386
Li -12.892884099345444 -0.4485694457744127 0.0 
H 4.455638471119304 0.8971388915488254 0.0 
H 8.43724562822614 -0.4485694457744127 0.0 
3
total: 898 i: 666 x: 201.27791458698525 y: 76.18428767980726 E: -0.15427883637091697
Li -12.970117259408413 -0.421211529865561 0.0 
H 4.434531610032506 0.842423059731122 0.0 
H 8.535585649375909 -0.421211529865561 0.0 
3
total: 898 i: 667 x: 199.27437413183338 y: 76.09100424289478 E: -0.13367500061357232
Li -13.055907781540279 -0.38631941785869056 0.0 
H 4.436109192154879 0.772638835717381 0.0 
H 8.619798589385399 -0.38631941785869056 0.0 
3
total: 898 i: 668 x: 197.09995374507406 y: 76.17580385707502 E: -0.13339496217617702
Li -13.14880740867541 -0.3439382303111005 0.0 
H 4.465671096612329 0.687876460622201 0.0 
H 8.68313631206308 -0.3439382303111005 0.0 
3
total: 898 i: 669 x: 194.87264763697428 y: 76.45139004662958 E: -0.15615361432372246
Li -13.241855406058258 -0.2970972343104904 0.0 
H 4.524448882635367 0.5941944686209808 0.0 
H 8.71740652342289 -0.2970972343104904 0.0 
3
total: 898 i: 670 x: 192.96873917099052 y: 76.82858688610983 E: -0.19732557799535405
Li -13.318326615882734 -0.2553795473147185 0.0 
H 4.596308139847222 0.5107590946294369 0.0 
H 8.722018476035517 -0.2553795473147185 0.0 
3
total: 898 i: 671 x: 191.39851292745576 y: 77.23133813062067 E: -0.25088480828548193
Li -13.378481670179708 -0.22046644648674704 0.0 
H 4.669728876436041 0.44093289297349403 0.0 
H 8.708752793743665 -0.22046644648674704 0.0 
3
total: 898 i: 672 x: 189.97060224354283 y: 77.66445150416907 E: -0.31988002071937854
Li -13.430419126161247 -0.18876474126233764 0.0 
H 4.746946109393214 0.3775294825246752 0.0 
H 8.683473016768033 -0.18876474126233764 0.0 
3
total: 898 i: 673 x: 188.47243203574942 y: 78.18155966657332 E: -0.4194325127540003
Li -13.481683881602654 -0.15597696376538564 0.0 
H 4.837889671961799 0.31195392753077134 0.0 
H 8.643794209640854 -0.15597696376538564 0.0 
3
total: 898 i: 674 x: 186.96619860598776 y: 78.7587286755588 E: -0.5556855609890119
Li -13.529552120396039 -0.1239427589355757 0.0 
H 4.938539388139047 0.24788551787115137 0.0 
H 8.591012732256987 -0.1239427589355757 0.0 
3
total: 898 i: 675 x: 185.28110473683427 y: 79.46043396799831 E: -0.7625281659794798
Li -13.578414185877037 -0.08976473560138622 0.0 
H 5.060357926980206 0.17952947120277246 0.0 
H 8.51805625889683 -0.08976473560138622 0.0 
3
total: 898 i: 676 x: 182.92720074522117 y: 80.50671267007624 E: -1.1688647286044498
Li -13.637997395471901 -0.0460511864404432 0.0 
H 5.241899778666026 0.09210237288088638 0.0 
H 8.396097616805877 -0.0460511864404432 0.0 
3
total: 898 i: 677 x: 181.39028087785 y: 81.20655294124127 E: -1.5144047862864507
Li -13.671442122146289 -0.020624807227356778 0.0 
H 5.363751153267735 0.04124961445471356 0.0 
H 8.307690968878553 -0.020624807227356778 0.0 
3
total: 898 i: 678 x: 179.72159270883185 y: 81.94504533629048 E: -1.9474918669264922
Li -13.702582730676207 -0.0038545118850836693 0.0 
H 5.493030908412708 0.0077090237701673385 0.0 
H 8.209551822263498 -0.0038545118850836693 0.0 
3
total: 898 i: 679 x: 178.40237979311559 y: 82.52263258124307 E: -2.334366636742351
Li -13.724557637084212 -0.020831890189258566 0.0 
H 5.5948169917873845 0.04166378037851713 0.0 
H 8.129740645296826 -0.020831890189258566 0.0 
3
total: 898 i: 680 x: 177.1966718577374 y: 83.0196309314985 E: -2.6972639252486914
Li -13.742094103884014 -0.03454827259130396 0.0 
H 5.68298753900298 0.06909654518260791 0.0 
H 8.059106564881038 -0.03454827259130396 0.0 
3
total: 898 i: 681 x: 175.64826653224546 y: 83.61391306891903 E: -3.157809157875696
Li -13.761683739039137 -0.04978932411473139 0.0 
H 5.789270001164462 0.09957864822946277 0.0 
H 7.97241373787468 -0.04978932411473139 0.0 
3
total: 898 i: 682 x: 174.01717335855255 y: 84.18031452685034 E: -3.606547876314102
Li -13.779218922799004 -0.06324657226792574 0.0 
H 5.891603008213934 0.12649314453585148 0.0 
H 7.887615914585069 -0.06324657226792574 0.0 
3
total: 898 i: 683 x: 172.2837565912955 y: 84.71265504713814 E: -4.011723224578782
Li -13.794920649559534 -0.07505907157731047 0.0 
H 5.988908915988562 0.1501181431546209 0.0 
H 7.806011733570971 -0.07505907157731047 0.0 
3
total: 898 i: 684 x: 170.1210746782943 y: 85.27991935665307 E: -4.379763564285844
Li -13.811082196152142 -0.08692114601321088 0.0 
H 6.094114504709541 0.17384229202642176 0.0 
H 7.716967691442598 -0.08692114601321088 0.0 
3
total: 898 i: 685 x: 167.6919993409704 y: 85.80173070226488 E: -4.5864951913848255
Li -13.825723573640417 -0.0974258867645862 0.0 
H 6.192734340534422 0.19485177352917243 0.0 
H 7.632989233105995 -0.0974258867645862 0.0 
3
total: 898 i: 686 x: 165.51861479340604 y: 86.18037290405144 E: -4.589403355008708
Li -13.836454435402638 -0.10507924377121426 0.0 
H 6.265860355490814 0.21015848754242855 0.0 
H 7.570594079911823 -0.10507924377121426 0.0 
3
total: 898 i: 687 x: 163.1742299791448 y: 86.51163036066343 E: -4.427448186042733
Li -13.846159118186582 -0.1121368196489157 0.0 
H 6.33143830121959 0.2242736392978314 0.0 
H 7.514720816966987 -0.1121368196489157 0.0 
3
total: 898 i: 688 x: 160.33537808876372 y: 86.82623617469777 E: -4.060049222959667
Li -13.855994026830672 -0.11971249456568127 0.0 
H 6.395914945841881 0.2394249891313625 0.0 
H 7.460079080988791 -0.11971249456568127 0.0 
3
total: 898 i: 689 x: 157.58164393666968 y: 87.05953018289951 E: -3.594518636577672
Li -13.864081393854514 -0.12660875603600075 0.0 
H 6.44611629716549 0.2532175120720015 0.0 
H 7.417965096689029 -0.12660875603600075 0.0 
3
total: 898 i: 690 x: 155.19690218428033 y: 87.21575436059052 E: -3.159172089400255
Li -13.87024777386979 -0.13255199035780138 0.0 
H 6.481831775191887 0.2651039807156028 0.0 
H 7.388415998677901 -0.13255199035780138 0.0 
3
total: 898 i: 691 x: 153.52042698366728 y: 87.30422212462636 E: -2.8590294499559357
Li -13.874230271909212 -0.13683677450665346 0.0 
H 6.503394136815004 0.27367354901330687 0.0 
H 7.370836135094208 -0.13683677450665346 0.0 
3
total: 898 i: 692 x: 151.69529979217614 y: 87.38304125766139 E: -2.554598818008847
Li -13.878306783379726 -0.14168578017816877 0.0 
H 6.524035835969476 0.2833715603563376 0.0 
H 7.354270947410248 -0.14168578017816877 0.0 
3
total: 898 i: 693 x: 149.2241846870682 y: 87.46399543661127 E: -2.202738441425642
Li -13.883493748870508 -0.1486852538194239 0.0 
H 6.547949730153833 0.29737050763884787 0.0 
H 7.335544018716677 -0.1486852538194239 0.0 
3
total: 898 i: 694 x: 146.6898194963374 y: 87.51958656780064 E: -1.9382633267851979
Li -13.88852755985451 -0.1565508342727289 0.0 
H 6.568390350070452 0.31310166854545773 0.0 
H 7.320137209784058 -0.1565508342727289 0.0 
3
total: 898 i: 695 x: 143.99815629396684 y: 87.551031224002 E: -1.7845102486807263
Li -13.893673729770683 -0.16588170913301367 0.0 
H 6.586281056527234 0.3317634182660273 0.0 
H 7.307392673243445 -0.16588170913301367 0.0 
3
total: 898 i: 696 x: 140.74622663363618 y: 87.55336456178502 E: -1.7876195635895291
Li -13.89976954806307 -0.17885919000387374 0.0 
H 6.603443234111772 0.35771838000774747 0.0 
H 7.2963263139512975 -0.17885919000387374 0.0 
3
total: 898 i: 697 x: 137.19679860786786 y: 87.51179760754486 E: -2.0229547981402907
Li -13.906469591770964 -0.1957591066790806 0.0 
H 6.617390477372425 0.3915182133581613 0.0 
H 7.28907911439854 -0.1957591066790806 0.0 
3
total: 898 i: 698 x: 133.54024737555866 y: 87.4178781325767 E: -2.4828833824559644
Li -13.913664437340254 -0.2170852831980419 0.0 
H 6.627129804760175 0.43417056639608387 0.0 
H 7.286534632580077 -0.2170852831980419 0.0 
3
total: 898 i: 699 x: 130.59662622173087 y: 87.29984750378603 E: -2.9647878447211733
Li -13.919865784873474 -0.2380148188203928 0.0 
H 6.631789295285232 0.47602963764078565 0.0 
H 7.2880764895882475 -0.2380148188203928 0.0 
3
total: 898 i: 700 x: 127.93041473588276 y: 87.15496543975351 E: -3.4376241229462337
Li -13.92596147787715 -0.2606696521719752 0.0 
H 6.633623146759744 0.5213393043439503 0.0 
H 7.292338331117405 -0.2606696521719752 0.0 
3
total: 898 i: 701 x: 125.5855667207339 y: 86.9927407954368 E: -3.8407675686300013
Li -13.931835723519782 -0.2841865896994774 0.0 
H 6.633356653447699 0.5683731793989548 0.0 
H 7.298479070072087 -0.2841865896994774 0.0 
3
total: 898 i: 702 x: 122.93741985676401 y: 86.7634223893774 E: -4.2327543604391815
Li -13.939234513630081 -0.315710254482491 0.0 
H 6.630906648050553 0.631420508964982 0.0 
H 7.3083278655795265 -0.315710254482491 0.0 
3
total: 898 i: 703 x: 120.38789447952115 y: 86.48800783398592 E: -4.498164858670466
Li -13.947359393522369 -0.3521346327108286 0.0 
H 6.6263555601881805 0.7042692654216574 0.0 
H 7.3210038333341885 -0.3521346327108286 0.0 
3
total: 898 i: 704 x: 117.97648435072455 y: 86.16927278259716 E: -4.607199541029504
Li -13.95622271532722 -0.39323324694286255 0.0 
H 6.620071391198268 0.7864664938857251 0.0 
H 7.336151324128954 -0.39323324694286255 0.0 
3
total: 898 i: 705 x: 115.69004255898346 y: 85.80658530920051 E: -4.55527511665535
Li -13.965986843817527 -0.43925980663075137 0.0 
H 6.612423436991476 0.8785196132615027 0.0 
H 7.35356340682605 -0.43925980663075137 0.0 
3
total: 898 i: 706 x: 113.51242737674717 y: 85.39983020976406 E: -4.353851143001736
Li -13.976847361571515 -0.49041008633861566 0.0 
H 6.603831848220853 0.9808201726772314 0.0 
H 7.3730155133506585 -0.49041008633861566 0.0 
3
total: 898 i: 707 x: 111.37589894649794 y: 84.93808841486178 E: -4.018207876130337
Li -13.98936155343584 -0.5482498532301513 0.0 
H 6.594569460089081 1.0964997064603024 0.0 
H 7.394792093346757 -0.5482498532301513 0.0 
3
total: 898 i: 708 x: 109.30732609784711 y: 84.43043167228188 E: -3.583303242773927
Li -14.003661546568118 -0.6118792345478035 0.0 
H 6.585449036430489 1.223758469095607 0.0 
H 7.418212510137629 -0.6118792345478035 0.0 
3
total: 898 i: 709 x: 107.30843928968815 y: 83.88566036244498 E: -3.0896200940738683
Li -14.020003155540811 -0.6804876634271917 0.0 
H 6.57738483114518 1.3609753268543834 0.0 
H 7.442618324395633 -0.6804876634271917 0.0 
3
total: 898 i: 710 x: 105.67242409715178 y: 83.40496231582591 E: -2.657798140688617
Li -14.035617461029645 -0.7415123892348029 0.0 
H 6.572179849985204 1.483024778469606 0.0 
H 7.463437611044444 -0.7415123892348029 0.0 
3
total: 898 i: 711 x: 104.30771541271585 y: 82.98488731626023 E: -2.2964223119405047
Li -14.050465006200687 -0.7953557688625829 0.0 
H 6.569456083792 1.590711537725166 0.0 
H 7.481008922408689 -0.7953557688625829 0.0 
3
total: 898 i: 712 x: 102.64632396858879 y: 82.4576944870536 E: -1.8749374993009336
Li -14.071147934290062 -0.8638064017112624 0.0 
H 6.569026196779705 1.727612803422525 0.0 
H 7.502121737510363 -0.8638064017112624 0.0 
3
total: 898 i: 713 x: 100.78383758974086 y: 81.85884884906805 E: -1.4482738526054488
Li -14.098307741937703 -0.9430868246918983 0.0 
H 6.573705806138882 1.8861736493837964 0.0 
H 7.524601935798817 -0.9430868246918983 0.0 
3
total: 898 i: 714 x: 98.75485856791533 y: 81.21688940479234 E: -1.057161566185809
Li -14.133529322872079 -1.0304874096292924 0.0 
H 6.5870789785410295 2.0609748192585844 0.0 
H 7.546450344331053 -1.0304874096292924 0.0 
3
total: 898 i: 715 x: 96.57945417064965 y: 80.56736481527399 E: -0.7309552161485174
Li -14.178956720839532 -1.122505007245029 0.0 
H 6.613688593378965 2.2450100144900578 0.0 
H 7.5652681274605715 -1.122505007245029 0.0 
3
total: 898 i: 716 x: 94.30593776734388 y: 79.96231110063921 E: -0.4861445465445728
Li -14.236211423257581 -1.2131959453699355 0.0 
H 6.658060095971974 2.426391890739871 0.0 
H 7.5781513272856085 -1.2131959453699355 0.0 
3
total: 898 i: 717 x: 91.95540511766674 y: 79.44775675688909 E: -0.31749052706415326
Li -14.307147304498983 -1.2969403122934777 0.0 
H 6.7245476239366475 2.593880624586955 0.0 
H 7.5825996805623355 -1.2969403122934777 0.0 
3
total: 898 i: 718 x: 89.64994433996867 y: 79.080652421944 E: -0.21427067949647954
Li -14.38909574768835 -1.3649580216479797 0.0 
H 6.812058438807421 2.729916043295959 0.0 
H 7.57703730888093 -1.3649580216479797 0.0 
3
total: 898 i: 719 x: 88.0287951918851 y: 78.91744836095862 E: -0.16915347180271173
Li -14.454128676386624 -1.4020437181857368 0.0 
H 6.88726288186885 2.804087436371474 0.0 
H 7.566865794517774 -1.4020437181857368 0.0 
3
total: 898 i: 720 x: 87.10790499758694 y: 78.86315837361154 E: -0.15173505437643964
Li -14.493707080706827 -1.4184469987386608 0.0 
H 6.93495490968273 2.836893997477321 0.0 
H 7.558752171024093 -1.4184469987386608 0.0 
3
total: 898 i: 721 x: 86.19396229731282 y: 78.83850382889004 E: -0.13972802443436477
Li -14.534776629433921 -1.4310028615313337 0.0 
H 6.985729568867715 2.8620057230626674 0.0 
H 7.549047060566203 -1.4310028615313337 0.0 
3
total: 898 i: 722 x: 84.79950594351865 y: 78.85992857105728 E: -0.13105493614473473
Li -14.600600794781855 -1.4422986273819014 0.0 
H 7.069424334880704 2.8845972547638032 0.0 
H 7.53117645990115 -1.4422986273819014 0.0 
3
total: 898 i: 723 x: 83.30620882375267 y: 78.9663795564095 E: -0.13494053490635047
Li -14.674727958194188 -1.4427146496155556 0.0 
H 7.166479110225504 2.8854292992311112 0.0 
H 7.508248847968682 -1.4427146496155556 0.0 
3
total: 898 i: 724 x: 82.60004419973569 y: 79.04819444499822 E: -0.14199914266658206
Li -14.710828845609859 -1.4383146766336001 0.0 
H 7.214626022959488 2.8766293532672007 0.0 
H 7.496202822650373 -1.4383146766336001 0.0 
3
total: 898 i: 725 x: 81.88836011461045 y: 79.15175414582838 E: -0.15299825531948058
Li -14.747721782730949 -1.430696413083928 0.0 
H 7.2643238881231404 2.8613928261678554 0.0 
H 7.483397894607812 -1.430696413083928 0.0 
3
total: 898 i: 726 x: 80.8375377865604 y: 79.34424685011834 E: -0.1775866423030099
Li -14.80281882605422 -1.4133221682861874 0.0 
H 7.339311781606565 2.8266443365723743 0.0 
H 7.463507044447653 -1.4133221682861874 0.0 
3
total: 898 i: 727 x: 79.58920361834717 y: 79.63537227921631 E: -0.2230733852553322
Li -14.868564315991184 -1.3827408814110758 0.0 
H 7.429660071915846 2.7654817628221515 0.0 
H 7.43890424407534 -1.3827408814110758 0.0 
3
total: 898 i: 728 x: 78.1211886041447 y: 80.06481634431793 E: -0.3077939018533036
Li -14.94495073586898 -1.3324787856836855 0.0 
H 7.535141066653916 2.6649575713673705 0.0 
H 7.40980966921507 -1.3324787856836855 0.0 
3
total: 898 i: 729 x: 76.35504414532369 y: 80.70106480335645 E: -0.47638409817005056
Li -15.032971069691877 -1.2517381311498623 0.0 
H 7.655923156384381 2.503476262299724 0.0 
H 7.377047913307495 -1.2517381311498623 0.0 
3
total: 898 i: 730 x: 74.35871399524015 y: 81.5524649265442 E: -0.7993403482993537
Li -15.123300247979543 -1.1371927025881357 0.0 
H 7.776162837218628 2.2743854051762717 0.0 
H 7.347137410760919 -1.1371927025881357 0.0 
3
total: 898 i: 731 x: 72.71847958522187 y: 82.31620213980304 E: -1.2026049884313006
Li -15.18735353481624 -1.0308610081867873 0.0 
H 7.856261184151762 2.061722016373575 0.0 
H 7.3310923506644805 -1.0308610081867873 0.0 
3
total: 898 i: 732 x: 71.17916520849383 y: 83.04005818172882 E: -1.6957728232711464
Li -15.237843028948253 -0.9282696852148793 0.0 
H 7.913920314810531 1.8565393704297586 0.0 
H 7.3239227141377174 -0.9282696852148793 0.0 
3
total: 898 i: 733 x: 69.68304933055954 y: 83.71166954066015 E: -2.250664493999561
Li -15.2780414123157 -0.8321149160118391 0.0 
H 7.954486627062716 1.6642298320236781 0.0 
H 7.323554785252982 -0.8321149160118391 0.0 
3
total: 898 i: 734 x: 68.09784146659507 y: 84.35947603063049 E: -2.8607881316177908
Li -15.312110715521852 -0.7387973126889209 0.0 
H 7.9836303357717515 1.4775946253778418 0.0 
H 7.328480379750099 -0.7387973126889209 0.0 
3
total: 898 i: 735 x: 66.61095825326892 y: 84.89434333851473 E: -3.3950007311789188
Li -15.33747260882357 -0.6614284034587606 0.0 
H 8.00126836119337 1.322856806917521 0.0 
H 7.336204247630205 -0.6614284034587606 0.0 
3
total: 898 i: 736 x: 65.88741419581986 y: 85.1284264272775 E: -3.628118302275714
Li -15.34792008666731 -0.6274788380361572 0.0 
H 8.007346147157529 1.2549576760723142 0.0 
H 7.340573939509779 -0.6274788380361572 0.0 
3
total: 898 i: 737 x: 65.03035738593209 y: 85.38430814538285 E: -3.8754893335024048
Li -15.358950894254903 -0.590295913161996 0.0 
H 8.012937976537827 1.180591826323992 0.0 
H 7.346012917717079 -0.590295913161996 0.0 
3
total: 898 i: 738 x: 63.39687246039765 y: 85.81238606685379 E: -4.2501156423173585
Li -15.376633499189806 -0.5278735086158145 0.0 
H 8.020040477342883 1.0557470172316292 0.0 
H 7.356593021846921 -0.5278735086158145 0.0 
3
total: 898 i: 739 x: 61.73817076257338 y: 86.17648361926155 E: -4.4931846420723796
Li -15.391087880019532 -0.47446273185401383 0.0 
H 8.024138931393301 0.9489254637080278 0.0 
H 7.366948948626229 -0.47446273185401383 0.0 
3
total: 898 i: 740 x: 60.07014870609541 y: 86.48232312440052 E: -4.601430804079123
Li -15.402978549396133 -0.4292265957127482 0.0 
H 8.026491267236624 0.8584531914254965 0.0 
H 7.376487282159514 -0.4292265957127482 0.0 
3
total: 898 i: 741 x: 58.394257440594714 y: 86.73910545429767 E: -4.586979382588482
Li -15.412927088249361 -0.3908185674152136 0.0 
H 8.027977153909386 0.7816371348304272 0.0 
H 7.384949934339971 -0.3908185674152136 0.0 
3
total: 898 i: 742 x: 56.335550062024275 y: 86.99809963168293 E: -4.430511911302285
Li -15.423114494242062 -0.3514234839867487 0.0 
H 8.029426916493206 0.7028469679734974 0.0 
H 7.393687577748858 -0.3514234839867487 0.0 
3
total: 898 i: 743 x: 54.115835568290926 y: 87.22147056764805 E: -4.134586656813594
Li -15.432260218809112 -0.3165421552819617 0.0 
H 8.031195517311804 0.6330843105639234 0.0 
H 7.401064701497308 -0.3165421552819617 0.0 
3
total: 898 i: 744 x: 51.52795310200753 y: 87.42443575068667 E: -3.6862784639891166
Li -15.441210310605273 -0.28351268416315417 0.0 
H 8.034106860733184 0.5670253683263085 0.0 
H 7.407103449872091 -0.28351268416315417 0.0 
3
total: 898 i: 745 x: 48.40450143521258 y: 87.60556772347563 E: -3.0916852476805072
Li -15.450320984861612 -0.2518431281707545 0.0 
H 8.039380389838044 0.503686256341509 0.0 
H 7.410940595023568 -0.2518431281707545 0.0 
3
total: 898 i: 746 x: 45.36717707981896 y: 87.7294580270074 E: -2.550272708850124
Li -15.457993169649647 -0.22739886368056925 0.0 
H 8.046746029726652 0.45479772736113844 0.0 
H 7.411247139922995 -0.22739886368056925 0.0 
3
total: 898 i: 747 x: 43.059001209785805 y: 87.79551176421883 E: -2.209483696376942
Li -15.463300036316204 -0.21199155976267559 0.0 
H 8.054017830239404 0.42398311952535117 0.0 
H 7.4092822060767976 -0.21199155976267559 0.0 
3
total: 898 i: 748 x: 41.13563685229579 y: 87.83444634719659 E: -1.9910944344703145
Li -15.467485831361396 -0.20081787753565727 0.0 
H 8.061297391873621 0.40163575507131455 0.0 
H 7.406188439487773 -0.20081787753565727 0.0 
3
total: 898 i: 749 x: 39.139172685423624 y: 87.86071040900471 E: -1.838003134057745
Li -15.471675941813308 -0.19054937357078697 0.0 
H 8.070138342188452 0.381098747141574 0.0 
H 7.4015375996248505 -0.19054937357078697 0.0 
3
total: 898 i: 750 x: 36.49156878607499 y: 87.87466459364975 E: -1.7606823537934704
Li -15.477092751098846 -0.17866357851536266 0.0 
H 8.084109195756634 0.3573271570307254 0.0 
H 7.3929835553422105 -0.17866357851536266 0.0 
3
total: 898 i: 751 x: 33.324502847657875 y: 87.86104545536138 E: -1.8610737927807537
Li -15.483529549795499 -0.16653189770674448 0.0 
H 8.10470917963712 0.33306379541348896 0.0 
H 7.37882037015838 -0.16653189770674448 0.0 
3
total: 898 i: 752 x: 29.92973275780399 y: 87.80890374750399 E: -2.187466858414367
Li -15.49060975831207 -0.15547375817978878 0.0 
H 8.132500509929473 0.3109475163595775 0.0 
H 7.358109248382599 -0.15547375817978878 0.0 
3
total: 898 i: 753 x: 26.478160027782792 y: 87.71205800527922 E: -2.706199750573878
Li -15.498293056154465 -0.145740950815498 0.0 
H 8.168442245130796 0.2914819016309961 0.0 
H 7.329850811023666 -0.145740950815498 0.0 
3
total: 898 i: 754 x: 23.066712930980835 y: 87.56515666000766 E: -3.3255063535259164
Li -15.506735436761785 -0.1370928791095513 0.0 
H 8.21394189047786 0.2741857582191026 0.0 
H 7.292793546283923 -0.1370928791095513 0.0 
3
total: 898 i: 755 x: 19.74619495661298 y: 87.36149592735563 E: -3.925009891016679
Li -15.516241538358257 -0.12904806906787392 0.0 
H 8.270973186069044 0.25809613813574783 0.0 
H 7.2452683522892105 -0.12904806906787392 0.0 
3
total: 898 i: 756 x: 16.632670402355398 y: 87.1009036583929 E: -4.373470122091832
Li -15.526918226999419 -0.12120142206189566 0.0 
H 8.33986925576646 0.24240284412379132 0.0 
H 7.187048971232956 -0.12120142206189566 0.0 
3
total: 898 i: 757 x: 14.071429922754511 y: 86.82187721628036 E: -4.580493732386606
Li -15.537585248812485 -0.11390570813958699 0.0 
H 8.411427271676486 0.22781141627917395 0.0 
H 7.1261579771360015 -0.11390570813958699 0.0 
3
total: 898 i: 758 x: 11.801950252913374 y: 86.51364345086593 E: -4.58969690624987
Li -15.549059435166614 -0.10617666421522488 0.0 
H 8.489318030779968 0.2123533284304498 0.0 
H 7.0597414043866475 -0.10617666421522488 0.0 
3
total: 898 i: 759 x: 9.675165909972183 y: 86.16203496800564 E: -4.418628849153368
Li -15.562190826348834 -0.09714620367918841 0.0 
H 8.577652059441649 0.19429240735837683 0.0 
H 6.984538766907184 -0.09714620367918841 0.0 
3
total: 898 i: 760 x: 7.653493897790448 y: 85.76230342872522 E: -4.085073472826944
Li -15.577569073553954 -0.0861117987805917 0.0 
H 8.678141171872204 0.17222359756118338 0.0 
H 6.899427901681749 -0.0861117987805917 0.0 
3
total: 898 i: 761 x: 5.735399987263607 y: 85.31743179784544 E: -3.625014792469814
Li -15.59565610154737 -0.07244203837251423 0.0 
H 8.790664588141588 0.14488407674502846 0.0 
H 6.804991513405781 -0.07244203837251423 0.0 
3
total: 898 i: 762 x: 3.832464585556489 y: 84.8104465230521 E: -3.059040469091412
Li -15.618051604761192 -0.05460204174670544 0.0 
H 8.920366706387114 0.10920408349341088 0.0 
H 6.697684898374074 -0.05460204174670544 0.0 
3
total: 898 i: 763 x: 1.9113532338179484 y: 84.23702182354563 E: -2.427873150505624
Li -15.646519513200323 -0.03084366396914102 0.0 
H 9.069630519839075 0.061687327938282036 0.0 
H 6.5768889933612495 -0.03084366396914102 0.0 
3
total: 898 i: 764 x: 0.08551760181146327 y: 83.60770936921207 E: -1.797866897598205
Li -15.683078096182614 -0.00156427396424233 0.0 
H 9.23748390450927 0.0031285479284846604 0.0 
H 6.4455941916733455 -0.00156427396424233 0.0 
3
total: 898 i: 765 x: 358.168701103174 y: 83.01489368038686 E: -1.290856958172334
Li -15.724755764058363 -0.037367542485609286 0.0 
H 9.40055787637524 0.07473508497121856 0.0 
H 6.324197887683125 -0.037367542485609286 0.0 
3
total: 898 i: 766 x: 356.31238487909525 y: 82.4159382836604 E: -0.8724471415447375
Li -15.777528968060643 -0.08344675931372537 0.0 
H 9.571769409698643 0.16689351862745078 0.0 
H 6.205759558362001 -0.08344675931372537 0.0 
3
total: 898 i: 767 x: 354.23673459265444 y: 81.81049672603962 E: -0.5434838246071056
Li -15.848655798748572 -0.14394673195552038 0.0 
H 9.754216314407207 0.28789346391104076 0.0 
H 6.094439484341363 -0.14394673195552038 0.0 
3
total: 898 i: 768 x: 352.2453461472872 y: 81.33084707170653 E: -0.34388719929239764
Li -15.928534237108456 -0.2087228814734371 0.0 
H 9.909588821175026 0.4174457629468742 0.0 
H 6.018945415933432 -0.2087228814734371 0.0 
3
total: 898 i: 769 x: 350.68955087435876 y: 81.04144058683595 E: -0.24589639432041444
Li -15.997872661118743 -0.2618558799917896 0.0 
H 10.01205339268317 0.5237117599835792 0.0 
H 5.985819268435579 -0.2618558799917896 0.0 
3
total: 898 i: 770 x: 349.93584002381067 y: 80.93045508852494 E: -0.21201841233680493
Li -16.033274278933504 -0.2878142648718321 0.0 
H 10.054756704077935 0.5756285297436643 0.0 
H 5.9785175748555694 -0.2878142648718321 0.0 
3
total: 898 i: 771 x: 349.18137091576585 y: 80.83902227723763 E: -0.18525733469862843
Li -16.069680459444516 -0.3136586771702139 0.0 
H 10.092648727919876 0.6273173543404278 0.0 
H 5.97703173152464 -0.3136586771702139 0.0 
3
total: 898 i: 772 x: 347.8938730482892 y: 80.72888635368514 E: -0.15335176681515233
Li -16.13354396564887 -0.35684375266049323 0.0 
H 10.145635395831828 0.7136875053209863 0.0 
H 5.987908569817041 -0.35684375266049323 0.0 
3
total: 898 i: 773 x: 346.47333330871385 y: 80.67434458449432 E: -0.13473193037221995
Li -16.2055849620688 -0.4021057140527848 0.0 
H 10.186519226134038 0.8042114281055694 0.0 
H 6.019065735934763 -0.4021057140527848 0.0 
3
total: 898 i: 774 x: 345.1899587080161 y: 80.68435542589843 E: -0.13065810094700864
Li -16.271069147405644 -0.4398360618079366 0.0 
H 10.207446946031105 0.8796721236158731 0.0 
H 6.063622201374535 -0.4398360618079366 0.0 
3
total: 898 i: 775 x: 344.3142812246669 y: 80.72255701652836 E: -0.13439663627042164
Li -16.31547446214789 -0.46341624112751645 0.0 
H 10.213094405653678 0.9268324822550329 0.0 
H 6.102380056494209 -0.46341624112751645 0.0 
3
total: 898 i: 776 x: 343.401655068226 y: 80.7885530704027 E: -0.14400838219394121
Li -16.361165703716356 -0.48583908386177005 0.0 
H 10.211696424687418 0.97167816772354 0.0 
H 6.1494692790289385 -0.48583908386177005 0.0 
3
total: 898 i: 777 x: 342.47373544563834 y: 80.88207669665917 E: -0.1601675283759697
Li -16.40670558796627 -0.5061629335285712 0.0 
H 10.202883744114377 1.0123258670571422 0.0 
H 6.203821843851898 -0.5061629335285712 0.0 
3
total: 898 i: 778 x: 341.1739121100578 y: 81.05570225747736 E: -0.19507543914056055
Li -16.468405111898857 -0.5300873544771536 0.0 
H 10.178596084689811 1.0601747089543072 0.0 
H 6.289809027209042 -0.5300873544771536 0.0 
3
total: 898 i: 779 x: 340.0677603263794 y: 81.24023229969659 E: -0.23817274782583206
Li -16.51852982197185 -0.5460243954061218 0.0 
H 10.147655795946513 1.0920487908122434 0.0 
H 6.370874026025334 -0.5460243954061218 0.0 
3
total: 898 i: 780 x: 338.8176811514696 y: 81.48618255308173 E: -0.3052127646595005
Li -16.572080987407528 -0.5589743115094135 0.0 
H 10.102338756937609 1.117948623018827 0.0 
H 6.469742230469915 -0.5589743115094135 0.0 
3
total: 898 i: 781 x: 338.3213687917595 y: 81.59399342283047 E: -0.3382251805330208
Li -16.592347246231572 -0.5626170227224941 0.0 
H 10.081566616700268 1.1252340454449885 0.0 
H 6.510780629531304 -0.5626170227224941 0.0 
3
total: 898 i: 782 x: 337.8599650477626 y: 81.69903593618473 E: -0.3726249832647956
Li -16.61065474660272 -0.5652449890583637 0.0 
H 10.060952898004164 1.1304899781167275 0.0 
H 6.549701848598559 -0.5652449890583637 0.0 
3
total: 898 i: 783 x: 337.1649632157139 y: 81.86547325393425 E: -0.4318456881383567
Li -16.637233888427335 -0.5678427425145887 0.0 
H 10.02770155828782 1.1356854850291773 0.0 
H 6.609532330139519 -0.5678427425145887 0.0 
3
total: 898 i: 784 x: 336.38835838788543 y: 82.06216537237106 E: -0.5096775060007295
Li -16.665482775797454 -0.5688579653721606 0.0 
H 9.987710031212792 1.1377159307443212 0.0 
H 6.677772744584665 -0.5688579653721606 0.0 
3
total: 898 i: 785 x: 335.4885370614407 y: 82.30250949021111 E: -0.6170505764820534
Li -16.696266239562902 -0.5676492520653651 0.0 
H 9.938133306619939 1.1352985041307302 0.0 
H 6.758132932942967 -0.5676492520653651 0.0 
3
total: 898 i: 786 x: 333.86842890040595 y: 82.76188684064074 E: -0.8628364593751243
Li -16.746408839781726 -0.559568291201426 0.0 
H 9.84211003962248 1.1191365824028523 0.0 
H 6.90429880015925 -0.559568291201426 0.0 
3
total: 898 i: 787 x: 332.0260506785038 y: 83.30998302583484 E: -1.2314114665053835
Li -16.79541076483422 -0.5426282474986902 0.0 
H 9.726653208556094 1.0852564949973806 0.0 
H 7.068757556278133 -0.5426282474986902 0.0 
3
total: 898 i: 788 x: 331.0565072558464 y: 83.60218494931286 E: -1.462970711058827
Li -16.817968183030658 -0.5311492893746 0.0 
H 9.665062059668287 1.0622985787491999 0.0 
H 7.152906123362374 -0.5311492893746 0.0 
3
total: 898 i: 789 x: 330.34557982945256 y: 83.81563277840424 E: -1.64761836993155
Li -16.833186755474358 -0.521885826208696 0.0 
H 9.620131880247438 1.0437716524173917 0.0 
H 7.213054875226916 -0.521885826208696 0.0 
3
total: 898 i: 790 x: 329.5948666371366 y: 84.03882377386853 E: -1.8543970721270797
Li -16.84811072111712 -0.5115007697711481 0.0 
H 9.573238105248542 1.023001539542296 0.0 
H 7.274872615868578 -0.5115007697711481 0.0 
3
total: 898 i: 791 x: 328.5895425987352 y: 84.33201052039472 E: -2.1462518346972144
Li -16.86636923302657 -0.4968945327301408 0.0 
H 9.511809035288135 0.9937890654602815 0.0 
H 7.354560197738433 -0.4968945327301408 0.0 
3
total: 898 i: 792 x: 327.0076043690692 y: 84.77436964699375 E: -2.6243850915369333
Li -16.89147315736762 -0.4730651743420225 0.0 
H 9.419555727014277 0.9461303486840451 0.0 
H 7.4719174303533435 -0.4730651743420225 0.0 
3
total: 898 i: 793 x: 324.96022589113926 y: 85.30163165193518 E: -3.2325340086866783
Li -16.918312989458613 -0.44231208910426095 0.0 
H 9.31031610181444 0.884624178208522 0.0 
H 7.60799688764417 -0.44231208910426095 0.0 
3
total: 898 i: 794 x: 322.7631560830033 y: 85.80123128937315 E: -3.80598666211504
Li -16.94138451335127 -0.4112441366065638 0.0 
H 9.2074592594643 0.8224882732131276 0.0 
H 7.733925253886973 -0.4112441366065638 0.0 
3
total: 898 i: 795 x: 320.5208500226386 y: 86.23822827195144 E: -4.250707700244759
Li -16.960196446964865 -0.3828119878896114 0.0 
H 9.117815344124654 0.7656239757792227 0.0 
H 7.842381102840211 -0.3828119878896114 0.0 
3
total: 898 i: 796 x: 317.9917708103729 y: 86.64831243450678 E: -4.542270133333129
Li -16.977105819125786 -0.3552797595043502 0.0 
H 9.033613533063665 0.7105595190087004 0.0 
H 7.943492286062128 -0.3552797595043502 0.0 
3
total: 898 i: 797 x: 315.39973335590633 y: 86.9886955775861 E: -4.602601577338603
Li -16.990951266000856 -0.33199413728465704 0.0 
H 8.96315485684475 0.6639882745693142 0.0 
H 8.027796409156107 -0.33199413728465704 0.0 
3
total: 898 i: 798 x: 312.60680343785907 y: 87.2798652080243 E: -4.431343801108027
Li -17.00302850714058 -0.31198826179448386 0.0 
H 8.901739709463104 0.6239765235889676 0.0 
H 8.10128879767748 -0.31198826179448386 0.0 
3
total: 898 i: 799 x: 309.08068616016686 y: 87.55805864263738 E: -3.9624296227949394
Li -17.015342052550906 -0.2931961487992489 0.0 
H 8.840674798754037 0.5863922975984979 0.0 
H 8.17466725379687 -0.2931961487992489 0.0 
3
total: 898 i: 800 x: 305.067015443697 y: 87.78127098433251 E: -3.255823824416981
Li -17.02670724844798 -0.2790738413137118 0.0 
H 8.787383009614306 0.5581476826274236 0.0 
H 8.239324238833674 -0.2790738413137118 0.0 
3
total: 898 i: 801 x: 301.30525951958407 y: 87.92122545622304 E: -2.5983148710265347
Li -17.03572230837454 -0.27167011277214254 0.0 
H 8.748367644427464 0.543340225544285 0.0 
H 8.28735466394707 -0.27167011277214254 0.0 
3
total: 898 i: 802 x: 297.7242199299714 y: 88.00469666167987 E: -2.1039648389800094
Li -17.04339266478338 -0.2691823636164709 0.0 
H 8.718008645672871 0.5383647272329417 0.0 
H 8.325384019110505 -0.2691823636164709 0.0 
3
total: 898 i: 803 x: 294.55083923983113 y: 88.04379222700989 E: -1.839672953151702
Li -17.04975244008889 -0.27044714767013694 0.0 
H 8.69495282950447 0.540894295340274 0.0 
H 8.354799610584418 -0.27044714767013694 0.0 
3
total: 898 i: 804 x: 292.3795719883831 y: 88.05303736508932 E: -1.771072883367143
Li -17.053981424909846 -0.2731800290839334 0.0 
H 8.68065050571543 0.5463600581678667 0.0 
H 8.373330919194416 -0.2731800290839334 0.0 
3
total: 898 i: 805 x: 290.13266181908 y: 88.04791495065311 E: -1.8016759138057945
Li -17.058328067010184 -0.2776660644263022 0.0 
H 8.66673075799116 0.5553321288526043 0.0 
H 8.391597309019026 -0.2776660644263022 0.0 
3
total: 898 i: 806 x: 288.12124934254285 y: 88.03041914135274 E: -1.9161280943471204
Li -17.062247329558115 -0.2832034912101205 0.0 
H 8.654774698172716 0.5664069824202409 0.0 
H 8.407472631385392 -0.2832034912101205 0.0 
3
total: 898 i: 807 x: 286.17352148881304 y: 88.00129311038626 E: -2.1011711206686083
Li -17.066116434835077 -0.2900551578904598 0.0 
H 8.643434143088854 0.5801103157809198 0.0 
H 8.42268229174622 -0.2900551578904598 0.0 
3
total: 898 i: 808 x: 284.38965833659205 y: 87.9633518428755 E: -2.3284349682431325
Li -17.06976594207638 -0.2977476594144292 0.0 
H 8.633073161771016 0.5954953188288583 0.0 
H 8.436692780305364 -0.2977476594144292 0.0 
3
total: 898 i: 809 x: 282.04207435138983 y: 87.8953105572668 E: -2.6970451862684404
Li -17.074796812230655 -0.31020580698572925 0.0 
H 8.619175018076895 0.6204116139714584 0.0 
H 8.45562179415376 -0.31020580698572925 0.0 
3
total: 898 i: 810 x: 279.44551638262624 y: 87.79256404191592 E: -3.1668626138340366
Li -17.080792793983655 -0.3276008449301873 0.0 
H 8.602946535442456 0.6552016898603747 0.0 
H 8.477846258541199 -0.3276008449301873 0.0 
3
total: 898 i: 811 x: 276.7000031345816 y: 87.64604005547521 E: -3.683287186852472
Li -17.087842473765352 -0.3510493607910266 0.0 
H 8.583984520099683 0.7020987215820533 0.0 
H 8.503857953665676 -0.3510493607910266 0.0 
3
total: 898 i: 812 x: 273.940896892401 y: 87.44944478695119 E: -4.1532161771740945
Li -17.095987544487443 -0.3812426611778978 0.0 
H 8.561855587850523 0.7624853223557955 0.0 
H 8.53413195663692 -0.3812426611778978 0.0 
3
total: 898 i: 813 x: 271.3135463634036 y: 87.20269721296613 E: -4.479901664329732
Li -17.10517516615871 -0.41798123806163673 0.0 
H 8.53632136966452 0.8359624761232733 0.0 
H 8.568853796494189 -0.41798123806163673 0.0 
3
total: 898 i: 814 x: 268.9374877303848 y: 86.91422223959465 E: -4.60787937175022
Li -17.11522221660507 -0.4598960375627372 0.0 
H 8.507621663102956 0.9197920751254745 0.0 
H 8.607600553502113 -0.4598960375627372 0.0 
3
total: 898 i: 815 x: 266.77831463336076 y: 86.58260121454893 E: -4.535730851875645
Li -17.126404777105613 -0.5070925466954915 0.0 
H 8.474893310321246 1.0141850933909828 0.0 
H 8.651511466784367 -0.5070925466954915 0.0 
3
total: 898 i: 816 x: 264.8426577679385 y: 86.21477213568467 E: -4.290045298464984
Li -17.13877626783881 -0.558459525670063 0.0 
H 8.438133613891488 1.1169190513401261 0.0 
H 8.700642653947327 -0.558459525670063 0.0 
3
total: 898 i: 817 x: 263.6596316171366 y: 85.95106270658145 E: -4.051780052163913
Li -17.147800081797673 -0.5947290922906369 0.0 
H 8.411240131024865 1.189458184581274 0.0 
H 8.736559950772804 -0.5947290922906369 0.0 
3
total: 898 i: 818 x: 262.629783754468 y: 85.69458350933549 E: -3.792106332075015
Li -17.15679910000799 -0.6295880992227222 0.0 
H 8.384554341824195 1.2591761984454446 0.0 
H 8.772244758183803 -0.6295880992227222 0.0 
3
total: 898 i: 819 x: 261.40343745566844 y: 85.35418549797193 E: -3.4258423242295013
Li -17.169209931404044 -0.6752401610261444 0.0 
H 8.348243210982968 1.3504803220522885 0.0 
H 8.820966720421072 -0.6752401610261444 0.0 
3
total: 898 i: 820 x: 260.0931821933291 y: 84.94724129046821 E: -2.9801283051255143
Li -17.184966152751333 -0.7289087867213887 0.0 
H 8.30339182979645 1.4578175734427776 0.0 
H 8.88157432295488 -0.7289087867213887 0.0 
3
total: 898 i: 821 x: 258.7176819600382 y: 84.4740593393738 E: -2.478536288079754
Li -17.20493539141706 -0.7900433162154982 0.0 
H 8.249139064384732 1.5800866324309966 0.0 
H 8.955796327032328 -0.7900433162154982 0.0 
3
total: 898 i: 822 x: 257.3293497322881 y: 83.95694459518926 E: -1.975100052691171
Li -17.229421664757243 -0.8551986814769553 0.0 
H 8.187118280809628 1.7103973629539104 0.0 
H 9.042303383947619 -0.8551986814769553 0.0 
3
total: 898 i: 823 x: 255.91498039162994 y: 83.40550598573964 E: -1.5055044114999538
Li -17.259618540315177 -0.9225699161861901 0.0 
H 8.117652008703672 1.84513983237238 0.0 
H 9.141966531611512 -0.9225699161861901 0.0 
3
total: 898 i: 824 x: 254.42888340571346 y: 82.82449023021088 E: -1.0916227552274511
Li -17.297700079040983 -0.9908075205158892 0.0 
H 8.040464281650994 1.981615041031778 0.0 
H 9.257235797389992 -0.9908075205158892 0.0 
3
total: 898 i: 825 x: 252.87382710259385 y: 82.24620048627804 E: -0.7600452790379574
Li -17.34478448831302 -1.055237234424988 0.0 
H 7.959126407651084 2.1104744688499757 0.0 
H 9.38565808066193 -1.055237234424988 0.0 
3
total: 898 i: 826 x: 251.25438817636444 y: 81.7069293751855 E: -0.517068158876129
Li -17.401337373259384 -1.1110714782755988 0.0 
H 7.878540364374068 2.222142956551197 0.0 
H 9.522797008885313 -1.1110714782755988 0.0 
3
total: 898 i: 827 x: 249.81729433780225 y: 81.29946329619166 E: -0.3709165291320035
Li -17.45718547318585 -1.1492531981524137 0.0 
H 7.813853779577762 2.298506396304828 0.0 
H 9.64333169360809 -1.1492531981524137 0.0 
3
total: 898 i: 828 x: 248.47153930427015 y: 80.98557078509563 E: -0.2774129663526758
Li -17.513453396065827 -1.174892742800488 0.0 
H 7.760961610270144 2.349785485600976 0.0 
H 9.752491785795684 -1.174892742800488 0.0 
3
total: 898 i: 829 x: 246.90477121041985 y: 80.70487332185371 E: -0.20585727367115764
Li -17.58263578616202 -1.1927120142432845 0.0 
H 7.710064295623162 2.385424028486569 0.0 
H 9.872571490538864 -1.1927120142432845 0.0 
3
total: 898 i: 830 x: 246.19202981389668 y: 80.60702799731423 E: -0.18316570525902476
Li -17.615064320364155 -1.196739115293602 0.0 
H 7.6909245663463075 2.3934782305872044 0.0 
H 9.924139754017848 -1.196739115293602 0.0 
3
total: 898 i: 831 x: 245.49256823888152 y: 80.52872663387859 E: -0.16564312163670974
Li -17.64729855265702 -1.1983399325132364 0.0 
H 7.674630278955817 2.3966798650264733 0.0 
H 9.9726682737012 -1.1983399325132364 0.0 
3
total: 898 i: 832 x: 244.7299380819054 y: 80.4628933782865 E: -0.15113944789200676
Li -17.682770411093603 -1.197546377360258 0.0 
H 7.6596836648026 2.3950927547205154 0.0 
H 10.023086746291 -1.197546377360258 0.0 
3
total: 898 i: 833 x: 243.7647984759405 y: 80.40793121995395 E: -0.13871280450363166
Li -17.727932184779448 -1.1929419486721609 0.0 
H 7.644969177253095 2.3858838973443213 0.0 
H 10.082963007526349 -1.1929419486721609 0.0 
3
total: 898 i: 834 x: 242.696456237355 y: 80.3826330533946 E: -0.1316765371511182
Li -17.777967154459876 -1.183450312243261 0.0 
H 7.634091692106477 2.3669006244865214 0.0 
H 10.1438754623534 -1.183450312243261 0.0 
3
total: 898 i: 835 x: 241.46718971412582 y: 80.39753552743262 E: -0.13139966319516308
Li -17.835161755595724 -1.1672541963726482 0.0 
H 7.628463234036353 2.3345083927452963 0.0 
H 10.206698521559371 -1.1672541963726482 0.0 
3
total: 898 i: 836 x: 239.88013631620305 y: 80.48224736536619 E: -0.14281687866290502
Li -17.907667565926705 -1.1387903169376612 0.0 
H 7.631739298453276 2.2775806338753224 0.0 
H 10.275928267473432 -1.1387903169376612 0.0 
3
total: 898 i: 837 x: 237.96778669484576 y: 80.67479761442185 E: -0.17520511449183304
Li -17.991862950247278 -1.0945477541818642 0.0 
H 7.650704988356328 2.189095508363728 0.0 
H 10.341157961890953 -1.0945477541818642 0.0 
3
total: 898 i: 838 x: 235.69679645447292 y: 81.01892488286622 E: -0.24597380639331973
Li -18.085674525510797 -1.030107490239788 0.0 
H 7.693047697112185 2.060214980479576 0.0 
H 10.392626828398612 -1.030107490239788 0.0 
3
total: 898 i: 839 x: 233.01231814007582 y: 81.56508632791387 E: -0.39320088684513266
Li -18.185841802102725 -0.9407973749671875 0.0 
H 7.767996936637246 1.8815947499343753 0.0 
H 10.41784486546548 -0.9407973749671875 0.0 
3
total: 898 i: 840 x: 230.1313698535089 y: 82.28452189904874 E: -0.665793777774834
Li -18.278643584618248 -0.8340335868817866 0.0 
H 7.87361174462869 1.6680671737635735 0.0 
H 10.405031839989554 -0.8340335868817866 0.0 
3
total: 898 i: 841 x: 228.21040281055673 y: 82.81782635485855 E: -0.9371980588386968
Li -18.33168186367311 -0.759481704066386 0.0 
H 7.955090619167034 1.5189634081327719 0.0 
H 10.376591244506077 -0.759481704066386 0.0 
3
total: 898 i: 842 x: 226.09152194565002 y: 83.43199455705472 E: -1.3337282066058445
Li -18.382120977444526 -0.6768526080646816 0.0 
H 8.051490100517611 1.3537052161293635 0.0 
H 10.330630876926918 -0.6768526080646816 0.0 
3
total: 898 i: 843 x: 224.30578988913166 y: 83.95282605084353 E: -1.7455291672238082
Li -18.418413370988436 -0.6087941063859864 0.0 
H 8.135114150520849 1.2175882127719726 0.0 
H 10.283299220467583 -0.6087941063859864 0.0 
3
total: 898 i: 844 x: 222.89927602536912 y: 84.35484227988573 E: -2.110965176512682
Li -18.443301171003842 -0.5572412563498913 0.0 
H 8.200757142229339 1.1144825126997824 0.0 
H 10.24254402877451 -0.5572412563498913 0.0 
3
total: 898 i: 845 x: 221.76949147530215 y: 84.66771467256083 E: -2.4220066030569587
Li -18.461124045633216 -0.517600344869262 0.0 
H 8.25248883931097 1.0352006897385242 0.0 
H 10.20863520632225 -0.517600344869262 0.0 
3
total: 898 i: 846 x: 220.4914694459902 y: 85.00702548803858 E: -2.7814795450798697
Li -18.479154960363317 -0.47500150103445477 0.0 
H 8.309228972156355 0.9500030020689094 0.0 
H 10.169925988206963 -0.47500150103445477 0.0 
3
total: 898 i: 847 x: 218.59446751630293 y: 85.47571515003666 E: -3.30211166556943
Li -18.50220092669364 -0.41668002531052567 0.0 
H 8.388713877371814 0.8333600506210515 0.0 
H 10.113487049321826 -0.41668002531052567 0.0 
3
total: 898 i: 848 x: 216.33483953412727 y: 85.97207346767753 E: -3.8505716056138364
Li -18.524729332832447 -0.35532973689630326 0.0 
H 8.474360117494001 0.7106594737926064 0.0 
H 10.050369215338439 -0.35532973689630326 0.0 
3
total: 898 i: 849 x: 213.96065124615643 y: 86.41834868681518 E: -4.286985086215441
Li -18.543769040658486 -0.30023228733548885 0.0 
H 8.552764357069144 0.6004645746709776 0.0 
H 9.991004683589338 -0.30023228733548885 0.0 
3
total: 898 i: 850 x: 211.28122490140856 y: 86.83445866696746 E: -4.561338580004346
Li -18.56089097986938 -0.24850533784501272 0.0 
H 8.627210110165652 0.49701067569002544 0.0 
H 9.933680869703721 -0.24850533784501272 0.0 
3
total: 898 i: 851 x: 208.5841594160568 y: 87.17083525720086 E: -4.593305771426662
Li -18.57465292181328 -0.20593503977650152 0.0 
H 8.688480040260927 0.41187007955300303 0.0 
H 9.886172881552351 -0.20593503977650152 0.0 
3
total: 898 i: 852 x: 205.63183320616062 y: 87.46012251659752 E: -4.383601708316154
Li -18.586836346510697 -0.1680811059672261 0.0 
H 8.742096052055075 0.33616221193445217 0.0 
H 9.844740294455622 -0.1680811059672261 0.0 
3
total: 898 i: 853 x: 201.9341107296397 y: 87.7302577807704 E: -3.8664300898310366
Li -18.599145875650915 -0.13039001123156682 0.0 
H 8.793122732714608 0.2607800224631337 0.0 
H 9.806023142936308 -0.13039001123156682 0.0 
3
total: 898 i: 854 x: 197.68923520748805 y: 87.94425197585896 E: -3.114806999378475
Li -18.610622846189955 -0.09648021829469589 0.0 
H 8.834452239989087 0.19296043658939177 0.0 
H 9.776170606200864 -0.09648021829469589 0.0 
3
total: 898 i: 855 x: 193.90803202192302 y: 88.06906356247683 E: -2.478257743561482
Li -18.61934702115794 -0.07187314232986036 0.0 
H 8.859174797612784 0.14374628465972072 0.0 
H 9.760172223545162 -0.07187314232986036 0.0 
3
total: 898 i: 856 x: 190.30535110361328 y: 88.14199145129034 E: -2.021589453664823
Li -18.62686859280886 -0.0515532297726383 0.0 
H 8.874118836492354 0.10310645954527661 0.0 
H 9.752749756316508 -0.0515532297726383 0.0 
3
total: 898 i: 857 x: 187.12304387172745 y: 88.17422422632862 E: -1.7984226164516062
Li -18.63315453992084 -0.03514064619646325 0.0 
H 8.881221224149453 0.07028129239292649 0.0 
H 9.751933315771392 -0.03514064619646325 0.0 
3
total: 898 i: 858 x: 185.1690372850805 y: 88.180107052464 E: -1.7575621765963703
Li -18.63693874010049 -0.025454354078454786 0.0 
H 8.88293250155385 0.05090870815690958 0.0 
H 9.754006238546644 -0.025454354078454786 0.0 
3
total: 898 i: 859 x: 183.15530602231814 y: 88.1753199011844 E: -1.7947079938741528
Li -18.640832976374885 -0.015591671079517623 0.0 
H 8.882626543945367 0.031183342159035246 0.0 
H 9.758206432429514 -0.015591671079517623 0.0 
3
total: 898 i: 860 x: 180.37090202671274 y: 88.15020912817823 E: -1.975569652340014
Li -18.64630116210706 -0.0018581735406373349 0.0 
H 8.878683614992855 0.00371634708127467 0.0 
H 9.767617547114206 -0.0018581735406373349 0.0 
3
total: 898 i: 861 x: 182.66452973551523 y: 88.09716282626368 E: -2.325257580795165
Li -18.652476676430197 -0.013713862856256968 0.0 
H 8.869519362234708 0.027427725712513937 0.0 
H 9.782957314195492 -0.013713862856256968 0.0 
3
total: 898 i: 862 x: 184.30423896130048 y: 88.05621385057204 E: -2.5691221531457944
Li -18.655985237581643 -0.02259969956974614 0.0 
H 8.862259472148782 0.04519939913949228 0.0 
H 9.79372576543286 -0.02259969956974614 0.0 
3
total: 898 i: 863 x: 185.8840672301764 y: 88.00780252598636 E: -2.8308789803680345
Li -18.659515538018983 -0.03160979317858973 0.0 
H 8.853595934356857 0.06321958635717945 0.0 
H 9.80591960366213 -0.03160979317858973 0.0 
3
total: 898 i: 864 x: 188.31877439745872 y: 87.91402806810123 E: -3.2648551256858744
Li -18.665327527075583 -0.046628847697153926 0.0 
H 8.836709254806262 0.09325769539430787 0.0 
H 9.82861827226932 -0.046628847697153926 0.0 
3
total: 898 i: 865 x: 190.91826227066645 y: 87.78431761543246 E: -3.7303370591116383
Li -18.672187457843577 -0.06468293888646791 0.0 
H 8.813297496637169 0.12936587777293584 0.0 
H 9.858889961206408 -0.06468293888646791 0.0 
3
total: 898 i: 866 x: 193.63748535995018 y: 87.6093380036528 E: -4.162911231401217
Li -18.680345538632466 -0.08659480562268133 0.0 
H 8.781795555961295 0.17318961124536264 0.0 
H 9.898549982671174 -0.08659480562268133 0.0 
3
total: 898 i: 867 x: 196.30861323772885 y: 87.38955261519733 E: -4.472223702849833
Li -18.68969062586204 -0.11216220773259694 0.0 
H 8.742502989814348 0.22432441546519388 0.0 
H 9.947187636047683 -0.11216220773259694 0.0 
3
total: 898 i: 868 x: 198.80646513084935 y: 87.13134527391578 E: -4.604535742039894
Li -18.70004693380405 -0.14084126951278855 0.0 
H 8.696836762628113 0.28168253902557705 0.0 
H 10.003210171175937 -0.14084126951278855 0.0 
3
total: 898 i: 869 x: 201.14401973379054 y: 86.83413769571155 E: -4.552897713774242
Li -18.711631031536495 -0.1730096165674384 0.0 
H 8.645010198241291 0.3460192331348768 0.0 
H 10.066620833295207 -0.1730096165674384 0.0 
3
total: 898 i: 870 x: 203.40919346970085 y: 86.48627580034312 E: -4.3225054768257385
Li -18.725152886793612 -0.21023516469093642 0.0 
H 8.585421303673282 0.4204703293818729 0.0 
H 10.139731583120327 -0.21023516469093642 0.0 
3
total: 898 i: 871 x: 205.5692797463885 y: 86.09316422301495 E: -3.9425478458150636
Li -18.740771379719167 -0.2522939395911265 0.0 
H 8.519549292005017 0.5045878791822531 0.0 
H 10.221222087714146 -0.2522939395911265 0.0 
3
total: 898 i: 872 x: 207.54076827236418 y: 85.67915330248069 E: -3.4813027571587916
Li -18.757963780771476 -0.2969704907017515 0.0 
H 8.451963154561994 0.593940981403503 0.0 
H 10.306000626209482 -0.2969704907017515 0.0 
3
total: 898 i: 873 x: 209.42586967824946 y: 85.23515074186663 E: -2.9700237303021915
Li -18.777637349016185 -0.34564713387413226 0.0 
H 8.381687144779299 0.6912942677482645 0.0 
H 10.395950204236886 -0.34564713387413226 0.0 
3
total: 898 i: 874 x: 211.36967618701 y: 84.7342925511784 E: -2.414389356717314
Li -18.801916568959623 -0.40188087775281733 0.0 
H 8.30547396318753 0.8037617555056347 0.0 
H 10.496442605772089 -0.40188087775281733 0.0 
3
total: 898 i: 875 x: 213.28721256685097 y: 84.20921105004079 E: -1.8856692112559816
Li -18.830555986988223 -0.4628177589135043 0.0 
H 8.229625659597115 0.9256355178270086 0.0 
H 10.600930327391108 -0.4628177589135043 0.0 
3
total: 898 i: 876 x: 215.0117941881307 y: 83.72453291883589 E: -1.4598036117783892
Li -18.860880927336392 -0.5214037607334848 0.0 
H 8.164063691764863 1.0428075214669694 0.0 
H 10.69681723557153 -0.5214037607334848 0.0 
3
total: 898 i: 877 x: 216.44866992923755 y: 83.32263701236506 E: -1.1546107942491894
Li -18.889812109342873 -0.572176420990133 0.0 
H 8.113724468316217 1.144352841980266 0.0 
H 10.776087641026653 -0.572176420990133 0.0 
3
total: 898 i: 878 x: 217.72258202148677 y: 82.97550984948982 E: -0.9254885750500589
Li -18.91845656971643 -0.6180775126853303 0.0 
H 8.073944309105471 1.2361550253706604 0.0 
H 10.844512260610955 -0.6180775126853303 0.0 
3
total: 898 i: 879 x: 218.991855132471 y: 82.64460106716379 E: -0.7355440425110514
Li -18.94993450521056 -0.6640998369773768 0.0 
H 8.040101590933837 1.328199673954754 0.0 
H 10.909832914276716 -0.6640998369773768 0.0 
3
total: 898 i: 880 x: 220.59865804472122 y: 82.25587522228196 E: -0.5455647797862552
Li -18.99412811165533 -0.7219586397393439 0.0 
H 8.007215531393161 1.4439172794786876 0.0 
H 10.986912580262167 -0.7219586397393439 0.0 
3
total: 898 i: 881 x: 222.4534582999954 y: 81.8611464991983 E: -0.38580224032749744
Li -19.051263320479745 -0.7869316070237141 0.0 
H 7.985255872660726 1.5738632140474285 0.0 
H 11.066007447819022 -0.7869316070237141 0.0 
3
total: 898 i: 882 x: 224.51766044701256 y: 81.50437151051605 E: -0.2661525299749343
Li -19.12243208299707 -0.8551782232503536 0.0 
H 7.983378177650163 1.710356446500707 0.0 
H 11.139053905346909 -0.8551782232503536 0.0 
3
total: 898 i: 883 x: 226.78209832198462 y: 81.22817662974651 E: -0.18573408356457544
Li -19.209100692969294 -0.9227898402878579 0.0 
H 8.010816504139388 1.845579680575716 0.0 
H 11.198284188829906 -0.9227898402878579 0.0 
3
total: 898 i: 884 x: 228.8384731346125 y: 81.09269500294201 E: -0.14586778730860586
Li -19.294613137877544 -0.9754047455671363 0.0 
H 8.06360431359687 1.9508094911342728 0.0 
H 11.231008824280678 -0.9754047455671363 0.0 
3
total: 898 i: 885 x: 230.4745923359038 y: 81.06877364384871 E: -0.13198410891263393
Li -19.366377853339824 -1.0098252568644628 0.0 
H 8.12479229071392 2.0196505137289256 0.0 
H 11.241585562625904 -1.0098252568644628 0.0 
3
total: 898 i: 886 x: 231.61014559337374 y: 81.09772756279193 E: -0.13088221983877407
Li -19.417642842384996 -1.0291810644027095 0.0 
H 8.177178521934113 2.0583621288054186 0.0 
H 11.240464320450887 -1.0291810644027095 0.0 
3
total: 898 i: 887 x: 232.76769851044634 y: 81.16669254517981 E: -0.1371626065386105
Li -19.470734011352928 -1.0446158560697192 0.0 
H 8.238775446051473 2.089231712139439 0.0 
H 11.23195856530145 -1.0446158560697192 0.0 
3
total: 898 i: 888 x: 234.08366145328995 y: 81.29434462521469 E: -0.15443055985560242
Li -19.531606783305218 -1.0563482719716701 0.0 
H 8.318526895755674 2.1126965439433407 0.0 
H 11.213079887549547 -1.0563482719716701 0.0 
3
total: 898 i: 889 x: 235.29260893888545 y: 81.4583045172857 E: -0.18167843304838516
Li -19.58747978806454 -1.061150632356044 0.0 
H 8.40045911040507 2.122301264712088 0.0 
H 11.187020677659469 -1.061150632356044 0.0 
3
total: 898 i: 890 x: 236.52957624976682 y: 81.67237618759937 E: -0.22391219201525103
Li -19.644012135142074 -1.0596329120837564 0.0 
H 8.492242316121551 2.1192658241675124 0.0 
H 11.151769819020526 -1.0596329120837564 0.0 
3
total: 898 i: 891 x: 237.3011471158439 y: 81.82937176613021 E: -0.25954296207674266
Li -19.67867678474742 -1.0551912860029002 0.0 
H 8.553199621531142 2.1103825720058005 0.0 
H 11.125477163216274 -1.0551912860029002 0.0 
3
total: 898 i: 892 x: 238.06905359589064 y: 82.00313498409932 E: -0.30377223698399985
Li -19.71253502097139 -1.047996071005035 0.0 
H 8.6163930138366 2.0959921420100702 0.0 
H 11.096142007134791 -1.047996071005035 0.0 
3
total: 898 i: 893 x: 239.42840469993735 y: 82.35176873122289 E: -0.4090235661755776
Li -19.77042042719901 -1.0282976905540795 0.0 
H 8.733473320344746 2.056595381108159 0.0 
H 11.036947106854257 -1.0282976905540795 0.0 
3
total: 898 i: 894 x: 241.15985803222918 y: 82.86422954925936 E: -0.60956859978329
Li -19.839198439645397 -0.9903459981942565 0.0 
H 8.889266854946545 1.9806919963885128 0.0 
H 10.949931584698845 -0.9903459981942565 0.0 
3
total: 898 i: 895 x: 242.88907414996885 y: 83.43518521237725 E: -0.9090677163577521
Li -19.900894786934327 -0.9391933725547239 0.0 
H 9.047055889879406 1.8783867451094478 0.0 
H 10.853838897054917 -0.9391933725547239 0.0 
3
total: 898 i: 896 x: 244.58031138104042 y: 84.02417643149998 E: -1.31572078368457
Li -19.953377874630007 -0.8791608772614482 0.0 
H 9.197109660401942 1.7583217545228966 0.0 
H 10.756268214228065 -0.8791608772614482 0.0 
3
total: 898 i: 897 x: 246.14918656841573 y: 84.56984143138268 E: -1.789540080128251
Li -19.994734183372284 -0.8183036446882396 0.0 
H 9.327118519817855 1.6366072893764794 0.0 
H 10.667615663554432 -0.8183036446882396 0.0 
